time,disp_y_top,react_y_top,stress_yy
0,0,0,0
0.01,-0.0015,-0.015020801748222,-0.0075007953569718
0.02,-0.003,-0.018224882986418,-0.0090971590251453
0.03,-0.0045,-0.021303680302517,-0.010629692851433
0.04,-0.006,-0.023886660312415,-0.011913234530744
0.05,-0.0075,-0.026417021534221,-0.013169375044546
0.06,-0.009,-0.02888440055664,-0.014392992782178
0.07,-0.0105,-0.030913876791792,-0.015397338696841
0.08,-0.012,-0.032789270944908,-0.016324041200997
0.09,-0.0135,-0.03457319021659,-0.017204340718718
0.1,-0.015,-0.036316409010829,-0.018063604128266
0.11,-0.0165,-0.038024721938002,-0.018904736035188
0.12,-0.018,-0.03970283729529,-0.019730097902203
0.13,-0.0195,-0.041354730771794,-0.020541686957699
0.14,-0.021,-0.042982429015539,-0.021340530137611
0.15,-0.0225,-0.04443290359038,-0.022050109039721
0.16,-0.024,-0.045851656042469,-0.02274323935274
0.17,-0.0255,-0.047248159422984,-0.023424643877167
0.18,-0.027,-0.048625002545449,-0.024095628609447
0.19,-0.0285,-0.049984149484736,-0.024757185500913
0.2,-0.03,-0.051319466200099,-0.02540619329328
0.21,-0.0315,-0.052563417731438,-0.026008821076044
0.22,-0.033,-0.053789909929539,-0.026602185588906
0.23,-0.0345,-0.055001110095859,-0.027187349668152
0.24,-0.036,-0.056167589894189,-0.027749597512808
0.25,-0.0375,-0.057309320700901,-0.028298969895853
0.26,-0.039,-0.058437638957686,-0.028841126948141
0.27,-0.0405,-0.059553417481068,-0.029376506273282
0.28,-0.042,-0.060657593723292,-0.029905582854738
0.29,-0.0435,-0.061702250191263,-0.030404487137203
0.3,-0.045,-0.062716056274791,-0.030887528403435
0.31,-0.0465,-0.063718674049009,-0.031364508570631
0.32,-0.048,-0.064710785263663,-0.031835774140088
0.33,-0.0495,-0.065693034122635,-0.032301652331966
0.34,-0.051,-0.066663493656671,-0.032761225763641
0.35,-0.0525,-0.067621484454686,-0.033214184057817
0.36,-0.054,-0.068571447526542,-0.033662692104455
0.37,-0.0555,-0.069513915555862,-0.034107022025823
0.38,-0.057,-0.081242169122123,-0.039944831943215
0.39,-0.0585,-0.095845992053778,-0.047220954250336
0.4,-0.06,-0.10908939419489,-0.05381581325023
0.41,-0.0615,-0.12095848510886,-0.059721325437581
0.42,-0.063,-0.13161917090551,-0.065019371753638
0.43,-0.0645,-0.14126327602944,-0.069805194565105
0.44,-0.066,-0.15010485739555,-0.07418545499948
0.45,-0.0675,-0.15833413457823,-0.078255137997448
0.46,-0.069,-0.16566124315026,-0.081868414331835
0.47,-0.0705,-0.17214964435193,-0.085057549149811
0.48,-0.072,-0.17823222812798,-0.088040221589733
0.49,-0.0735,-0.183997647448,-0.090860982212093
0.5,-0.075,-0.18945580410536,-0.093525095497607
0.51,-0.0765,-0.1947046040527,-0.096081632877694
0.52,-0.078,-0.19978148998082,-0.098549332971441
0.53,-0.0795,-0.20469402631349,-0.1009320737534
0.54,-0.081,-0.20946863498174,-0.10324320940837
0.55,-0.0825,-0.21410315864998,-0.1054818294384
0.56,-0.084,-0.21859339589308,-0.10764592758183
0.57,-0.0855,-0.22297931051984,-0.10975565440433
0.58,-0.087,-0.22724130088104,-0.11180131390419
0.59,-0.0885,-0.23140728370387,-0.11379697796089
0.6,-0.09,-0.23546605834265,-0.11573700722122
0.61,-0.0915,-0.23945748796483,-0.11764140661052
0.62,-0.093,-0.24338433951408,-0.11951158785501
0.63,-0.0945,-0.24725924757166,-0.12135391398593
0.64,-0.096,-0.25107841361128,-0.12316653163099
0.65,-0.0975,-0.25483712429577,-0.12494712771276
0.66,-0.099,-0.25852854044671,-0.12669236984895
0.67,-0.1005,-0.26217459229478,-0.12841317279114
0.68,-0.102,-0.26575947822366,-0.13010147801415
0.69,-0.1035,-0.26928073894681,-0.13175629251808
0.7,-0.105,-0.27274407567728,-0.13338050269453
0.71,-0.1065,-0.27615298314919,-0.13497583722023
0.72,-0.108,-0.2795208136544,-0.1365489119498
0.73,-0.1095,-0.28284417481695,-0.13809801528321
0.74,-0.111,-0.28613822449902,-0.13963083993144
0.75,-0.1125,-0.28940445051082,-0.14114814464118
0.76,-0.114,-0.29264101964654,-0.14264904830556
0.77,-0.1155,-0.29682688857058,-0.14462237419934
0.78,-0.117,-0.31616229717331,-0.15417339322439
0.79,-0.1185,-0.33690963999416,-0.1644325369768
0.8,-0.12,-0.35655097953042,-0.17413616209211
0.81,-0.1215,-0.37424382744878,-0.18286162403384
0.82,-0.123,-0.39013921228657,-0.19068363348074
0.83,-0.1245,-0.40474830012764,-0.19785784430083
0.84,-0.126,-0.41842747604409,-0.20456206865044
0.85,-0.1275,-0.43100867462375,-0.21071251778599
0.86,-0.129,-0.44261221600702,-0.21636883578694
0.87,-0.1305,-0.45343001975644,-0.22162714823592
0.88,-0.132,-0.46366036547383,-0.22658671008392
0.89,-0.1335,-0.47334888280743,-0.23127052431606
0.9,-0.135,-0.4826101021208,-0.2357358165465
0.91,-0.1365,-0.49145865514384,-0.23999024291021
0.92,-0.138,-0.49985395466469,-0.24401388572474
0.93,-0.1395,-0.50786632960093,-0.24784216073913
0.94,-0.141,-0.51561317272457,-0.25153362281364
0.95,-0.1425,-0.52315508226419,-0.25511847922215
0.96,-0.144,-0.53049594888376,-0.25859878483367
0.97,-0.1455,-0.5376598695215,-0.26198650784042
0.98,-0.147,-0.544646976113,-0.26528204001649
0.99,-0.1485,-0.55293328636201,-0.26922414911763
1,-0.15,-0.57498644936637,-0.28005665258224
1.01,-0.147,-0.49761092350605,-0.24223490833957
1.02,-0.144,-0.43141950473659,-0.21002114471711
1.03,-0.141,-0.36511343384699,-0.17769928186609
1.04,-0.138,-0.29866813794198,-0.14525780296681
1.05,-0.135,-0.23213067417083,-0.11272309958248
1.06,-0.132,-0.16629878389845,-0.080497463612461
1.07,-0.129,-0.12243497991401,-0.059325197745936
1.08,-0.126,-0.082172837486768,-0.039938694686862
1.09,-0.123,-0.04233764889811,-0.020727855497616
1.1,-0.12,-0.01996797257071,-0.010006468505089
1.11,-0.117,-0.0090252472796744,-0.0048450968505541
1.12,-0.114,4.088874160742e-10,-0.00058171366422659
1.13,-0.111,2.7634174098385e-10,-0.0005817135962295
1.14,-0.108,1.4395496635892e-10,-0.00058171353227959
1.15,-0.105,1.1451269025427e-11,-0.00058171346569908
1.16,-0.102,-1.2103359059178e-10,-0.0005817134017372
1.17,-0.099,-2.5352609638218e-10,-0.00058171333515182
1.18,-0.096,-3.8602084995408e-10,-0.00058171327119867
1.19,-0.093,-5.1852531297825e-10,-0.00058171320462048
1.2,-0.09,-6.5099768509874e-10,-0.00058171314066328
1.21,-0.087,-7.8348318805441e-10,-0.00058171307408092
1.22,-0.084,-9.1591285129138e-10,-0.00058171301012349
1.23,-0.081,-1.0484826453857e-09,-0.00058171294354779
1.24,-0.078,-1.1810008524241e-09,-0.00058171287959554
1.25,-0.075,-1.3134701306974e-09,-0.00058171281301492
1.26,-0.072,-1.445863250331e-09,-0.00058171274905447
1.27,-0.069,-1.5784528407915e-09,-0.00058171268246676
1.28,-0.066,-1.7108786957395e-09,-0.00058171261850604
1.29,-0.063,-1.8433308452313e-09,-0.00058171255191893
1.3,-0.06,-1.9758921151638e-09,-0.00058171248796385
1.31,-0.057,-2.1083513865374e-09,-0.00058171242138234
1.32,-0.054,-2.2408584905002e-09,-0.00058171235741466
1.33,-0.051,-2.3733363594901e-09,-0.00058171229083687
1.34,-0.048,-2.5058223292897e-09,-0.00058171222688497
1.35,-0.045,-2.6383007892867e-09,-0.00058171216030369
1.36,-0.042,-2.7708223199722e-09,-0.00058171209634625
1.37,-0.039,-2.9032863159652e-09,-0.00058171202976604
1.38,-0.036,-3.03574451602e-09,-0.00058171196580772
1.39,-0.033,-3.1682738350007e-09,-0.00058171189921981
1.4,-0.03,-3.3006864983253e-09,-0.00058171183526267
1.41,-0.027,-3.4332553911156e-09,-0.00058171176868303
1.42,-0.024,-3.5657110146724e-09,-0.0005817117047304
1.43,-0.021,-3.6981843144193e-09,-0.00058171163815256
1.44,-0.018,-3.8306624810075e-09,-0.0005817115741907
1.45,-0.015,-3.9631444875789e-09,-0.000581711507603
1.46,-0.012,-4.0956189610746e-09,-0.00058171144364948
1.47,-0.0089999999999997,-4.2280866027871e-09,-0.00058171137706075
1.48,-0.0059999999999997,-4.3605843939106e-09,-0.00058171131310609
