time,disp_y_top,react_y_top,stress_yy
0,0,0,0
0.01,-0.0015,-0.0054423470878218,-0.0027127214291317
0.02,-0.003,-0.0070259719361797,-0.0035065806794869
0.03,-0.0045,-0.0086196834297711,-0.0043001778196656
0.04,-0.006,-0.010213797313219,-0.0050933097783217
0.05,-0.0075,-0.011808311164273,-0.0058859677797109
0.06,-0.009,-0.013403207200085,-0.0066781433060407
0.07,-0.0105,-0.014854487902201,-0.0073980997795819
0.08,-0.012,-0.01578160248072,-0.0078564366647609
0.09,-0.0135,-0.016703665937618,-0.0083119167973369
0.1,-0.015,-0.017622611753096,-0.0087654250132241
0.11,-0.0165,-0.018538122140601,-0.0092168918756402
0.12,-0.018,-0.019451132923328,-0.0096667605216522
0.13,-0.0195,-0.020362146053849,-0.010115271282208
0.14,-0.021,-0.021271552315021,-0.010562620668178
0.15,-0.0225,-0.022179680568598,-0.011008973261363
0.16,-0.024,-0.023086808755023,-0.011454467751822
0.17,-0.0255,-0.02399317232885,-0.01189922180723
0.18,-0.027,-0.024898970733294,-0.012343335348963
0.19,-0.0285,-0.025672907005265,-0.012721266322977
0.2,-0.03,-0.026362810818838,-0.013056974246966
0.21,-0.0315,-0.027050954150276,-0.013391498083635
0.22,-0.033,-0.027737672166634,-0.013724991258195
0.23,-0.0345,-0.028423001397092,-0.014057483894219
0.24,-0.036,-0.029107066383523,-0.014389039098033
0.25,-0.0375,-0.029789983460695,-0.014719715838504
0.26,-0.039,-0.030471854911706,-0.015049566132982
0.27,-0.0405,-0.031152771577171,-0.015378636260497
0.28,-0.042,-0.031832814367316,-0.015706967521111
0.29,-0.0435,-0.032512055473002,-0.016034596843139
0.3,-0.045,-0.03319055939528,-0.016361557301959
0.31,-0.0465,-0.033868383830177,-0.016687878563702
0.32,-0.048,-0.034443854809979,-0.016963519347565
0.33,-0.0495,-0.034960133926506,-0.017209758044893
0.34,-0.051,-0.035475155864165,-0.017455149419512
0.35,-0.0525,-0.035989398794329,-0.017699932551049
0.36,-0.054,-0.036486740783052,-0.017936203232532
0.37,-0.0555,-0.036937573651709,-0.018149398173354
0.38,-0.057,-0.037492736625607,-0.018414599967808
0.39,-0.0585,-0.043032730529303,-0.021171182545937
0.4,-0.06,-0.048497513911301,-0.023888771095169
0.41,-0.0615,-0.053855172193069,-0.026551443614914
0.42,-0.063,-0.059080260651123,-0.029146434180585
0.43,-0.0645,-0.064152375337092,-0.031663510819428
0.44,-0.066,-0.0690581117131,-0.034095935580131
0.45,-0.0675,-0.073791521445334,-0.036440693754717
0.46,-0.069,-0.078353861275711,-0.038698370148387
0.47,-0.0705,-0.082752726773446,-0.04087269799286
0.48,-0.072,-0.086804682029551,-0.042872338306942
0.49,-0.0735,-0.090562478149862,-0.044723610532276
0.5,-0.075,-0.094040816546652,-0.046432674092355
0.51,-0.0765,-0.097398760456175,-0.048080008626419
0.52,-0.078,-0.10065618342124,-0.049675554066183
0.53,-0.0795,-0.10382923392904,-0.051227381490385
0.54,-0.081,-0.10693218760078,-0.052742630912604
0.55,-0.0825,-0.10989702426745,-0.054187314694767
0.56,-0.084,-0.11278437749147,-0.055591786445227
0.57,-0.0855,-0.11563231857298,-0.056975099628769
0.58,-0.087,-0.11838866773849,-0.058311317722386
0.59,-0.0885,-0.12111218023347,-0.059629749232455
0.6,-0.09,-0.12381458024289,-0.060936268999254
0.61,-0.0915,-0.12635677213368,-0.062161799380068
0.62,-0.093,-0.12840751077152,-0.063141994065159
0.63,-0.0945,-0.13039646692655,-0.064090404178385
0.64,-0.096,-0.1323664657646,-0.065028337185559
0.65,-0.0975,-0.13425619981866,-0.065925564590686
0.66,-0.099,-0.13610274336087,-0.06680046115276
0.67,-0.1005,-0.13790234412192,-0.067651054096948
0.68,-0.102,-0.13964404281705,-0.068471903329274
0.69,-0.1035,-0.14137364706905,-0.069285848508941
0.7,-0.105,-0.14307389039975,-0.070084509450867
0.71,-0.1065,-0.14461935635916,-0.070805538676789
0.72,-0.108,-0.14614915892846,-0.071517978260053
0.73,-0.1095,-0.14766826240799,-0.072224349416976
0.74,-0.111,-0.14917808620079,-0.072925345651437
0.75,-0.1125,-0.15065035121717,-0.073607078958928
0.76,-0.114,-0.15210009555734,-0.074276953055242
0.77,-0.1155,-0.15354281535057,-0.074942611846172
0.78,-0.117,-0.15590953765417,-0.076068482992875
0.79,-0.1185,-0.16104814857103,-0.078576208401053
0.8,-0.12,-0.16731079236872,-0.081646027201789
0.81,-0.1215,-0.1752631967428,-0.085559524167556
0.82,-0.123,-0.1830375417528,-0.089382167728486
0.83,-0.1245,-0.19058440515335,-0.093089365402158
0.84,-0.126,-0.1979365487613,-0.0966972681225
0.85,-0.1275,-0.20511806480715,-0.10021779055735
0.86,-0.129,-0.2121373767629,-0.10365509057184
0.87,-0.1305,-0.21894891868252,-0.1069865662127
0.88,-0.132,-0.22552002244281,-0.11019609110408
0.89,-0.1335,-0.23189257654925,-0.11330465476318
0.9,-0.135,-0.23808353136857,-0.11632079986177
0.91,-0.1365,-0.24324130171136,-0.11882068098062
0.92,-0.138,-0.2482594623268,-0.12124892815687
0.93,-0.1395,-0.25316328179171,-0.12361812511757
0.94,-0.141,-0.25789190698358,-0.12589707302434
0.95,-0.1425,-0.26239625351797,-0.12806224076283
0.96,-0.144,-0.26671954181321,-0.1301351961435
0.97,-0.1455,-0.27096702397629,-0.132168345938
0.98,-0.147,-0.27514707577579,-0.13416587516346
0.99,-0.1485,-0.27926708619383,-0.1361314781631
1,-0.15,-0.28577254128159,-0.1392855582654
1.01,-0.147,-0.26293202959275,-0.12819793389862
1.02,-0.144,-0.24133050442215,-0.11771134078065
1.03,-0.141,-0.21967606587732,-0.10717792086812
1.04,-0.138,-0.19798702473308,-0.096606651079827
1.05,-0.135,-0.1762784495482,-0.086006764334972
1.06,-0.132,-0.15454969811452,-0.075379512480157
1.07,-0.129,-0.13279649186046,-0.064722839416084
1.08,-0.126,-0.11099780539597,-0.054025883620312
1.09,-0.123,-0.092114396519236,-0.04478296673349
1.1,-0.12,-0.078408903112008,-0.038148856871287
1.11,-0.117,-0.065127780347795,-0.031718076090616
1.12,-0.114,-0.051827431684516,-0.025267007644382
1.13,-0.111,-0.038499793249481,-0.018791793850578
1.14,-0.108,-0.02544705702852,-0.012440063147088
1.15,-0.105,-0.014678026198855,-0.0071988440301376
1.16,-0.102,-0.0098934310190403,-0.0048991934018327
1.17,-0.099,-0.0063753292381439,-0.0032197494350142
1.18,-0.096,-0.0028585638559939,-0.001537883808242
1.19,-0.093,-7.2490220134164e-09,-0.00016860208723564
1.2,-0.09,7.3094754558364e-14,-0.00016856195183069
1.21,-0.087,7.249091933313e-09,-0.00016852181643905
1.22,-0.084,1.5135954030524e-14,-0.00016856193906353
1.23,-0.081,-7.2489964696238e-09,-0.00016860206169866
1.24,-0.078,-7.5086549357459e-14,-0.0001685619390642
1.25,-0.075,7.2488899481169e-09,-0.00016852181644146
1.26,-0.072,5.8152211819258e-14,-0.0001685619390596
1.27,-0.069,-7.24883562135e-09,-0.00016860206169019
1.28,-0.066,2.0364434515798e-14,-0.00016856193906287
1.29,-0.063,7.2487918625326e-09,-0.00016852181644643
1.3,-0.06,5.191422730305e-14,-0.00016856193906115
1.31,-0.057,-7.2486477659474e-09,-0.00016860206168798
1.32,-0.054,-6.9887280709194e-14,-0.00016856193906143
1.33,-0.051,7.2485296012143e-09,-0.0001685218164471
1.34,-0.048,5.2644093147326e-14,-0.0001685619390591
1.35,-0.045,-7.2484277183796e-09,-0.00016860206168369
1.36,-0.042,-6.9195466126008e-14,-0.00016856193906176
1.37,-0.039,7.2482620666347e-09,-0.00016852181645291
1.38,-0.036,1.2009943405649e-13,-0.00016856193906017
1.39,-0.033,-7.248088414505e-09,-0.00016860206168037
1.4,-0.03,-1.2730785193839e-13,-0.00016856193906329
1.41,-0.027,7.2478461619339e-09,-0.00016852181645823
1.42,-0.024,3.1796909143899e-14,-0.0001685619390605
1.43,-0.021,-7.2477502435729e-09,-0.00016860206167404
1.44,-0.018,-9.7537976917052e-14,-0.00016856193906257
1.45,-0.015,7.2476544446988e-09,-0.00016852181646389
1.46,-0.012,5.6772298162908e-14,-0.00016856193906083
1.47,-0.0089999999999997,-7.247547305545e-09,-0.00016860206167104
1.48,-0.0059999999999997,-2.2207147281012e-14,-0.00016856193906328
1.49,-0.0029999999999997,7.2474634456634e-09,-0.00016852181646821
1.5,0,2.7695098310228e-14,-0.00016856193906046
