time,disp_y_top,react_y_top,stress_yy
0,0,0,0
0.01,-0.002,-0.015298802985371,-0.0076385661989119
0.02,-0.004,-0.020761593844083,-0.010360680822954
0.03,-0.006,-0.02474504204702,-0.012341842863288
0.04,-0.008,-0.028579230969721,-0.014246445334674
0.05,-0.01,-0.032344528214841,-0.016114719734405
0.06,-0.012,-0.036056767796527,-0.017954564131962
0.07,-0.014,-0.039642319169358,-0.01972922218363
0.08,-0.016,-0.04278535113945,-0.02128091341958
0.09,-0.018,-0.045880307159587,-0.02280682515974
0.1,-0.02,-0.048933608267027,-0.024310198114826
0.11,-0.022,-0.051951068901189,-0.025793956524999
0.12,-0.024,-0.054937208362229,-0.027260373195136
0.13,-0.026,-0.057660977145726,-0.028594828379692
0.14,-0.028,-0.060236385695229,-0.029854074089563
0.15,-0.03,-0.062679279850859,-0.031046112688224
0.16,-0.032,-0.065053679702588,-0.032202761941846
0.17,-0.034,-0.067397789736298,-0.033343024189227
0.18,-0.036,-0.069714602874363,-0.034468387090919
0.19,-0.038,-0.072006609036012,-0.035580114816409
0.2,-0.04,-0.074276101841678,-0.036679364675767
0.21,-0.042,-0.07652512455935,-0.037767167928434
0.22,-0.044,-0.078755505972951,-0.038844447672872
0.23,-0.046,-0.080968889439041,-0.039912033487777
0.24,-0.048,-0.083166757052354,-0.040970673610971
0.25,-0.05,-0.085350449833727,-0.042021045118959
0.26,-0.052,-0.087438167751858,-0.043022185376345
0.27,-0.054,-0.08944574363646,-0.043982050856711
0.28,-0.056,-0.091438220159134,-0.044933227593548
0.29,-0.058,-0.10276840061368,-0.050555181476697
0.3,-0.06,-0.12089265881643,-0.0595674682094
0.31,-0.062,-0.13830909596605,-0.068219819904668
0.32,-0.064,-0.1547376759072,-0.076371735444817
0.33,-0.066,-0.17034645770883,-0.084107123279834
0.34,-0.068,-0.18514470428759,-0.091430358192981
0.35,-0.07,-0.199168546035,-0.098359444829821
0.36,-0.072,-0.21255474712314,-0.104962443786
0.37,-0.074,-0.22540809401049,-0.1112916532039
0.38,-0.076,-0.23770287010466,-0.11733429101733
0.39,-0.078,-0.24931206629526,-0.12302735506259
0.4,-0.08,-0.26020303147219,-0.12835492118399
0.41,-0.082,-0.27072407773278,-0.13349094225465
0.42,-0.084,-0.28039951682332,-0.1381981158238
0.43,-0.086,-0.28948363098976,-0.14260377372134
0.44,-0.088,-0.29834456781068,-0.14689198646213
0.45,-0.09,-0.30701338870212,-0.15107842015803
0.46,-0.092,-0.31551539671188,-0.1551758488537
0.47,-0.094,-0.32387114629978,-0.15919466289296
0.48,-0.096,-0.33200551901802,-0.16309808934504
0.49,-0.098,-0.339956438709,-0.16690484172005
0.5,-0.1,-0.34772201493373,-0.17061404826005
0.51,-0.102,-0.35533754883103,-0.17424286275972
0.52,-0.104,-0.36285825068094,-0.17781939991764
0.53,-0.106,-0.37029155600281,-0.18134745142085
0.54,-0.108,-0.37764385030364,-0.18483028064671
0.55,-0.11,-0.38492072807834,-0.18827075022737
0.56,-0.112,-0.39210909305364,-0.19166246670085
0.57,-0.114,-0.39911619652222,-0.19495900050054
0.58,-0.116,-0.4060273021024,-0.19820299944437
0.59,-0.118,-0.41284403936593,-0.2013953515651
0.6,-0.12,-0.4223529622936,-0.20592860078138
0.61,-0.122,-0.44683287605757,-0.21794540949297
0.62,-0.124,-0.47349056450154,-0.23104494490716
0.63,-0.126,-0.49916130972324,-0.24364064262464
0.64,-0.128,-0.52384279308303,-0.25573117573308
0.65,-0.13,-0.54768193562252,-0.26738989768095
0.66,-0.132,-0.56950756783027,-0.2780321984078
0.67,-0.134,-0.5900447015527,-0.28802029554269
0.68,-0.136,-0.6098710478066,-0.29764278437199
0.69,-0.138,-0.62907921755639,-0.30694601168476
0.7,-0.14,-0.64766817706678,-0.31592974224519
0.71,-0.142,-0.66554635774238,-0.32454746424646
0.72,-0.144,-0.68300631328325,-0.33294612520823
0.73,-0.146,-0.70009948727574,-0.34115147426587
0.74,-0.148,-0.71680303077688,-0.34915228198453
0.75,-0.15,-0.73250914028611,-0.35664655946736
0.76,-0.152,-0.74773333226598,-0.3638908065685
0.77,-0.154,-0.76578117778244,-0.37253735890202
0.78,-0.156,-0.79823108787865,-0.38835992621261
0.79,-0.158,-0.82990579405551,-0.40378195626325
0.8,-0.16,-0.86083623830937,-0.41881822059691
0.81,-0.162,-0.89081679375371,-0.43336549757897
0.82,-0.164,-0.91982787392766,-0.44741399399219
0.83,-0.166,-0.94805970047352,-0.46105978144729
0.84,-0.168,-0.97553996412367,-0.47431661878965
0.85,-0.17,-1.0021888599068,-0.48714382240897
0.86,-0.172,-1.0281901045809,-0.49963347175525
0.87,-0.174,-1.0532674911039,-0.51164805540732
0.88,-0.176,-1.0777902944332,-0.52337123855407
0.89,-0.178,-1.1009665735455,-0.53440948486046
0.9,-0.18,-1.1233758037105,-0.54505186019047
0.91,-0.182,-1.1447648302882,-0.55517590966554
0.92,-0.184,-1.1651925797369,-0.56481203518065
0.93,-0.186,-1.1849170237839,-0.57408558991713
0.94,-0.188,-1.2040408001555,-0.58304667989669
0.95,-0.19,-1.2227841389081,-0.59180609464746
0.96,-0.192,-1.2411391082016,-0.60035978621135
0.97,-0.194,-1.2642169738227,-0.61126319630956
0.98,-0.196,-1.2934844135644,-0.6252418375438
0.99,-0.198,-1.3219989170126,-0.63883133530447
1,-0.2,-1.3497185461634,-0.65201105670862
1.01,-0.196,-1.2340569243706,-0.59621792148266
1.02,-0.192,-1.1213367231859,-0.54175638446432
1.03,-0.188,-1.0211681533658,-0.49358833853261
1.04,-0.184,-0.92096450026296,-0.44529912201555
1.05,-0.18,-0.82021677064093,-0.39657895441424
1.06,-0.176,-0.71911779913773,-0.34754447471672
1.07,-0.172,-0.61793954831927,-0.29836324425302
1.08,-0.168,-0.51665406881647,-0.24901029820329
1.09,-0.164,-0.43491442176164,-0.20943462931567
1.1,-0.16,-0.36116981783305,-0.17382598821776
1.11,-0.156,-0.28731341778929,-0.13808976040765
1.12,-0.152,-0.21503697718303,-0.1030728236098
1.13,-0.148,-0.16945608066636,-0.081350408832765
1.14,-0.144,-0.12484813264017,-0.060066232616648
1.15,-0.14,-0.080165358788307,-0.038696511723766
1.16,-0.136,-0.035452968847375,-0.017267219788423
1.17,-0.132,-0.019687650093515,-0.0098236623608867
1.18,-0.128,-0.0077618024000175,-0.0042260258351267
1.19,-0.124,-8.8634954004173e-14,-0.00057603760299429
1.2,-0.12,-1.3088188776582e-13,-0.00057603763001594
1.21,-0.116,-4.3441748272645e-14,-0.00057603765704086
1.22,-0.112,-9.19390364079e-14,-0.00057603768406723
1.23,-0.108,-1.5251134502427e-13,-0.00057603771108644
1.24,-0.104,-1.8840632789248e-13,-0.00057603773811079
1.25,-0.1,-2.110955453407e-13,-0.00057603776513347
1.26,-0.096,-2.5615707133025e-13,-0.00057603779215798
1.27,-0.092,-3.1633106439724e-13,-0.0005760378191813
1.28,-0.088,-3.4403517429099e-13,-0.00057603784620284
1.29,-0.084,-3.2790340470548e-13,-0.00057603787322475
1.3,-0.08,-3.3077373508945e-13,-0.00057603790024235
1.31,-0.076,-3.7154421249699e-13,-0.00057603792727
1.32,-0.072,-4.0136153068074e-13,-0.00057603795428772
1.33,-0.068,-4.3595558275032e-13,-0.00057603798130646
1.34,-0.064,-4.9654461857333e-13,-0.00057603800832811
1.35,-0.06,-5.2777981908881e-13,-0.00057603803534831
1.36,-0.056,-5.786287010786e-13,-0.00057603806236858
1.37,-0.052,-5.2799761158834e-13,-0.00057603808938921
1.38,-0.048,-5.5332412371607e-13,-0.00057603811641045
1.39,-0.044,-6.0871154376253e-13,-0.00057603814344146
1.4,-0.04,-5.998037725947e-13,-0.00057603817046469
1.41,-0.036,-6.3749806689518e-13,-0.00057603819748091
1.42,-0.032,-6.1940230234366e-13,-0.00057603822450211
1.43,-0.028,-6.3143122051553e-13,-0.00057603825152961
1.44,-0.024,-5.5751896629592e-13,-0.00057603827855186
1.45,-0.02,-5.7690019821259e-13,-0.00057603830557863
1.46,-0.016,-5.9148921925743e-13,-0.00057603833260571
