time,disp_y_top,react_y_top,stress_yy
0,0,0,0
0.01,-0.0015,-0.0026746891041184,-0.0013352386641746
