time,disp_y_top,react_y_top,stress_yy
0,0,0,0
0.01,-0.0025,-0.040707845375597,-0.020316976025077
0.02,-0.005,-0.050047268109701,-0.024958903733567
0.03,-0.0075,-0.058066454851003,-0.028935693126441
0.04,-0.01,-0.065376472394332,-0.032553117633009
0.05,-0.0125,-0.072289392618435,-0.03596739997668
0.06,-0.015,-0.078790370219267,-0.039171523605487
0.07,-0.0175,-0.084849602175045,-0.042150490743334
0.08,-0.02,-0.090486038108114,-0.044913946161267
0.09,-0.0225,-0.095778893469476,-0.047501420838936
0.1,-0.025,-0.10089655359689,-0.049997502615734
0.11,-0.0275,-0.10582149303141,-0.05239348479912
0.12,-0.03,-0.11054840978419,-0.054686782345792
0.13,-0.0325,-0.11506527181714,-0.056871557223393
0.14,-0.035,-0.11921815098151,-0.058870929022922
0.15,-0.0375,-0.12314042524927,-0.060751665774433
0.16,-0.04,-0.12693505476321,-0.062565493469663
0.17,-0.0425,-0.130626916762,-0.064324965730885
0.18,-0.045,-0.13422600361445,-0.066035136604493
0.19,-0.0475,-0.13774022256928,-0.067700012580117
0.2,-0.05,-0.14117647418699,-0.069323092898246
0.21,-0.0525,-0.144540844431,-0.070907465660937
0.22,-0.055,-0.14783873154076,-0.072455872018347
0.23,-0.0575,-0.15107495055082,-0.073970758668549
0.24,-0.06,-0.15425275353831,-0.075453790398735
0.25,-0.0625,-0.15734795901704,-0.076892968546105
0.26,-0.065,-0.16036848128873,-0.0782922780703
0.27,-0.0675,-0.16332107535906,-0.079655131659274
0.28,-0.07,-0.16621122519777,-0.080984368576151
0.29,-0.0725,-0.16905817395973,-0.082289557025467
0.3,-0.075,-0.17186435088504,-0.083571951808997
0.31,-0.0775,-0.17463203239093,-0.084832729149321
0.32,-0.08,-0.17733796563433,-0.086060157752416
0.33,-0.0825,-0.17999251663023,-0.087259555644478
0.34,-0.085,-0.18261443852734,-0.088440340978395
0.35,-0.0875,-0.18520544485639,-0.089603415246262
0.36,-0.09,-0.18776346392634,-0.090747684729505
0.37,-0.0925,-0.19028192203553,-0.091869689204628
0.38,-0.095,-0.19276944182864,-0.092974089275929
0.39,-0.0975,-0.19522158080349,-0.09405873298923
0.4,-0.1,-0.20641537199114,-0.09951120396919
0.41,-0.1025,-0.26084238292823,-0.12661681223373
0.42,-0.105,-0.30987821761531,-0.1510207592719
0.43,-0.1075,-0.35381802758152,-0.172856334109
0.44,-0.11,-0.39365712814087,-0.19261066389736
0.45,-0.1125,-0.42364263775974,-0.20740599281997
0.46,-0.115,-0.44643095514526,-0.21857809086202
0.47,-0.1175,-0.46588709480296,-0.22805974438361
0.48,-0.12,-0.48307264375606,-0.2363825369822
0.49,-0.1225,-0.49862225359229,-0.24386756028986
0.5,-0.125,-0.51301011329094,-0.25075213362529
0.51,-0.1275,-0.52654241315361,-0.25719065147424
0.52,-0.13,-0.53940956705079,-0.26327996053125
0.53,-0.1325,-0.55153659802313,-0.26898340564599
0.54,-0.135,-0.56316822264895,-0.27442521432501
0.55,-0.1375,-0.5743211039049,-0.27961425141921
0.56,-0.14,-0.58508426455349,-0.28459574652299
0.57,-0.1425,-0.59551859405557,-0.28940137196647
0.58,-0.145,-0.60562777288359,-0.29403368841391
0.59,-0.1475,-0.6154583201903,-0.29851700511284
0.6,-0.15,-0.62506019431229,-0.30287613680935
0.61,-0.1525,-0.63436441604495,-0.30707698520106
0.62,-0.155,-0.64348707247055,-0.31117799280088
0.63,-0.1575,-0.65245207343816,-0.31519133829512
0.64,-0.16,-0.66126982120483,-0.31912246435733
0.65,-0.1625,-0.66993594608677,-0.32296963883086
0.66,-0.165,-0.67845381776763,-0.32673474302576
0.67,-0.1675,-0.68681464042188,-0.33041343751396
0.68,-0.17,-0.6949644200461,-0.33397904002479
0.69,-0.1725,-0.70296774624359,-0.33746411722686
0.7,-0.175,-0.71081345806709,-0.34086352855448
0.71,-0.1775,-0.71855601892392,-0.34420407706878
0.72,-0.18,-0.72614404030191,-0.34746094593628
0.73,-0.1825,-0.7336032853972,-0.35064680068922
0.74,-0.185,-0.74095560711417,-0.35377249585997
0.75,-0.1875,-0.74821859460496,-0.35684679996804
0.76,-0.19,-0.75539563668963,-0.35987151693662
0.77,-0.1925,-0.76248985903132,-0.36284829143178
0.78,-0.195,-0.76950416780677,-0.36577866167594
0.79,-0.1975,-0.77643623185661,-0.3686615741921
0.8,-0.2,-0.78328919276004,-0.37149867033456
0.81,-0.2025,-0.79006972127352,-0.37429334061274
0.82,-0.205,-0.7967800233132,-0.37704677048231
0.83,-0.2075,-0.80342222085005,-0.37976008789887
0.84,-0.21,-0.80999829554745,-0.38243435293763
0.85,-0.2125,-0.81650314480914,-0.38506711823658
0.86,-0.215,-0.84571784710962,-0.39900863063459
0.87,-0.2175,-0.87868263773222,-0.41484287916575
0.88,-0.22,-0.90979390765474,-0.42976034552818
0.89,-0.2225,-0.93922457682341,-0.44384090169094
0.9,-0.225,-0.96648729437176,-0.45683188631006
0.91,-0.2275,-0.99118414295191,-0.46852922403736
0.92,-0.23,-1.0136009823038,-0.47907587288243
0.93,-0.2325,-1.0337228133057,-0.48846135821954
0.94,-0.235,-1.0533017467753,-0.49756191947049
0.95,-0.2375,-1.0947849818322,-0.51763336073502
0.96,-0.24,-1.1335592531163,-0.53633379950999
0.97,-0.2425,-1.1695510423692,-0.55363287999011
0.98,-0.245,-1.2032981071312,-0.56979628409548
0.99,-0.2475,-1.2348339707083,-0.58486078182167
1,-0.25,-1.2644320624995,-0.59894528518719
1.01,-0.245,-0.97499194881818,-0.45989212575156
1.02,-0.24,-0.70216966532821,-0.32899798816729
1.03,-0.235,-0.48215612638865,-0.22463356189492
1.04,-0.23,-0.29170465227175,-0.1348187700884
1.05,-0.225,-0.13152553325846,-0.060112664328187
1.06,-0.22,-0.024295681745214,-0.010429005480603
1.07,-0.215,-1.0400498686022e-12,0.00051160000688603
1.08,-0.21,2.8883757771615e-13,0.00051159997698227
1.09,-0.205,1.4030352671768e-12,0.00051159994710675
1.1,-0.2,2.6897651857552e-12,0.00051159991719619
1.11,-0.195,3.8548213896644e-12,0.00051159988734892
1.12,-0.19,4.9694739764753e-12,0.0005115998574505
1.13,-0.185,6.1145909977011e-12,0.00051159982756237
1.14,-0.18,7.4407457259962e-12,0.00051159979766307
1.15,-0.175,8.6737769405625e-12,0.00051159976780346
1.16,-0.17,9.9304754821788e-12,0.00051159973789894
1.17,-0.165,1.1041113539396e-11,0.00051159970802724
1.18,-0.16,1.2269329324223e-11,0.00051159967809956
1.19,-0.155,1.3492864798007e-11,0.00051159964821318
1.2,-0.15,1.4641940573401e-11,0.00051159961835675
1.21,-0.145,1.5769467369832e-11,0.0005115995884565
1.22,-0.14,1.7062325673427e-11,0.00051159955856079
1.23,-0.135,1.827594596249e-11,0.00051159952868732
1.24,-0.13,1.9469481162362e-11,0.00051159949878154
1.25,-0.125,2.0645973706969e-11,0.00051159946892527
1.26,-0.12,2.1783276232617e-11,0.00051159943903018
1.27,-0.115,2.3103890064394e-11,0.00051159940914572
1.28,-0.11,2.4202579583478e-11,0.00051159937925913
1.29,-0.105,2.5482779406581e-11,0.00051159934936683
1.3,-0.1,2.6631410957241e-11,0.00051159931948252
1.31,-0.095,2.7827808281441e-11,0.00051159928957633
1.32,-0.09,2.9049350253019e-11,0.0005115992596811
1.33,-0.085,3.0360251842393e-11,0.00051159922979678
1.34,-0.08,3.1333435073443e-11,0.00051159919991023
1.35,-0.075,3.2702291531206e-11,0.00051159917002615
1.36,-0.07,3.3864819761896e-11,0.00051159914013227
1.37,-0.065,3.5010823362343e-11,0.00051159911024423
1.38,-0.059999999999999,3.6231961820978e-11,0.00051159908035296
1.39,-0.054999999999999,3.7288229721001e-11,0.00051159905049862
1.4,-0.049999999999999,3.8599261326544e-11,0.00051159902059732
1.41,-0.044999999999999,3.9642398515043e-11,0.00051159899070476
1.42,-0.039999999999999,4.0841902064915e-11,0.00051159896081862
1.43,-0.034999999999999,4.2084693687567e-11,0.00051159893092609
1.44,-0.029999999999999,4.3358248225491e-11,0.00051159890101226
1.45,-0.024999999999999,4.4475240073357e-11,0.00051159887115176
1.46,-0.019999999999999,4.5782259636194e-11,0.00051159884125861
