time,disp_y_top,react_y_top,stress_yy
0,0,0,0
0.01,-0.0025,-0.0084628576620696,-0.0042234894308293
