time,disp_y_top,react_y_top,stress_yy
0,0,0,0
0.01,-0.0015,-0.043855631926129,-0.021896048267249
0.02,-0.003,-0.05487780822644,-0.027386565140708
0.03,-0.0045,-0.064698438521393,-0.032272844666319
0.04,-0.006,-0.070777920945098,-0.035288912645747
0.05,-0.0075,-0.076064572563116,-0.03790696366083
0.06,-0.009,-0.081142291795567,-0.04041845726431
0.07,-0.0105,-0.086049370853044,-0.04284260530754
0.08,-0.012,-0.090814444336187,-0.045193779374748
0.09,-0.0135,-0.095459484446322,-0.047483010257084
0.1,-0.015,-0.09992951813875,-0.049683154384517
0.11,-0.0165,-0.10416388260789,-0.051764327615997
0.12,-0.018,-0.10831301261274,-0.05380124768111
0.13,-0.0195,-0.11219825416356,-0.055705079898473
0.14,-0.021,-0.11579239425288,-0.057462457939075
0.15,-0.0225,-0.11931437049528,-0.059182410916256
0.16,-0.024,-0.1227715991182,-0.06086867224166
0.17,-0.0255,-0.12617046118563,-0.062524456107073
0.18,-0.027,-0.12951647496899,-0.064152542564803
0.19,-0.0285,-0.13281444410982,-0.065755352289367
0.2,-0.03,-0.13606857685382,-0.067335006492644
0.21,-0.0315,-0.13928258130928,-0.068893374765134
0.22,-0.033,-0.14245973787495,-0.070432105441316
0.23,-0.0345,-0.14560219952751,-0.071952303635959
0.24,-0.036,-0.14865879801273,-0.07342863013673
0.25,-0.0375,-0.15168529653986,-0.074888759808497
0.26,-0.039,-0.15468391771065,-0.076333823224104
0.27,-0.0405,-0.1576566541269,-0.077764824927009
0.28,-0.042,-0.16050593702019,-0.079132737487001
0.29,-0.0435,-0.16330793131516,-0.080475845247696
0.3,-0.045,-0.16608692872437,-0.081806355813854
0.31,-0.0465,-0.16884432451036,-0.083124978856783
0.32,-0.048,-0.17146601593006,-0.084374522297439
0.33,-0.0495,-0.17405355533495,-0.085605903930174
0.34,-0.051,-0.17662014017259,-0.086825754417365
0.35,-0.0525,-0.17911043954277,-0.0880061139973
0.36,-0.054,-0.18151325423131,-0.089141357069661
0.37,-0.0555,-0.18389537902526,-0.090265219837567
0.38,-0.057,-0.18625813845688,-0.091378298126887
0.39,-0.0585,-0.18860247854326,-0.092481105768201
0.4,-0.06,-0.19092937163397,-0.093574129680687
0.41,-0.0615,-0.19323971699165,-0.094657822075231
0.42,-0.063,-0.1955343501577,-0.095732603252184
0.43,-0.0645,-0.19781405021812,-0.096798865166511
0.44,-0.066,-0.20007954523764,-0.097856974175837
0.45,-0.0675,-0.20232191167832,-0.098902465066531
0.46,-0.069,-0.20448769400414,-0.09990852858371
0.47,-0.0705,-0.20663963625834,-0.10090670149631
0.48,-0.072,-0.20877867302053,-0.10189734926878
0.49,-0.0735,-0.21090526982451,-0.10288074590676
0.5,-0.075,-0.21301998031534,-0.10385716908382
0.51,-0.0765,-0.21512332067643,-0.10482687864681
0.52,-0.078,-0.21712137235304,-0.1057432649417
0.53,-0.0795,-0.21905309316727,-0.10662576566713
0.54,-0.081,-0.22097135195063,-0.10750058485436
0.55,-0.0825,-0.22283004554118,-0.1083447677708
0.56,-0.084,-0.22459139340049,-0.10913954220337
0.57,-0.0855,-0.22633764139522,-0.10992588144827
0.58,-0.087,-0.22806930429257,-0.11070404936305
0.59,-0.0885,-0.22978688996034,-0.11147430586005
0.6,-0.09,-0.23148447920674,-0.11223353731079
0.61,-0.0915,-0.23316366390645,-0.11298258359058
0.62,-0.093,-0.23483031653175,-0.1137245332271
0.63,-0.0945,-0.23648485318165,-0.11445959500336
0.64,-0.096,-0.2381276665457,-0.11518796931614
0.65,-0.0975,-0.23973950891554,-0.11589964041432
0.66,-0.099,-0.24133488556419,-0.11660218292696
0.67,-0.1005,-0.24291961580071,-0.11729862826923
0.68,-0.102,-0.24812721666697,-0.1198075644842
0.69,-0.1035,-0.28190646549054,-0.13662222732103
0.7,-0.105,-0.31469255840594,-0.1529375058943
0.71,-0.1065,-0.34656207032654,-0.16879008538707
0.72,-0.108,-0.37753590846125,-0.18418841597471
0.73,-0.1095,-0.40766197266754,-0.19915476072485
0.74,-0.111,-0.43701549113391,-0.21372483204792
0.75,-0.1125,-0.46568307109237,-0.22794045530919
0.76,-0.114,-0.49356558283279,-0.24174934448033
0.77,-0.1155,-0.51850215631613,-0.25407012737693
0.78,-0.117,-0.53912548198761,-0.26422397718273
0.79,-0.1185,-0.55842885703296,-0.27370674775111
0.8,-0.12,-0.57588988257856,-0.2822574514352
0.81,-0.1215,-0.59103334919745,-0.28963906821382
0.82,-0.123,-0.60459580634775,-0.29622130129012
0.83,-0.1245,-0.6173357404526,-0.30238345798496
0.84,-0.126,-0.62933194666623,-0.30816540985522
0.85,-0.1275,-0.64054651528954,-0.31354900636687
0.86,-0.129,-0.65122369949284,-0.3186560696315
0.87,-0.1305,-0.66145229042675,-0.32353168425259
0.88,-0.132,-0.67128015224364,-0.32820018433248
0.89,-0.1335,-0.68078919460437,-0.3327027102431
0.9,-0.135,-0.69001969400784,-0.33705968985755
0.91,-0.1365,-0.69899670501183,-0.34128397066544
0.92,-0.138,-0.70768218812034,-0.34535709986613
0.93,-0.1395,-0.7161467422484,-0.34931427676733
0.94,-0.141,-0.72429035593485,-0.35310610299522
0.95,-0.1425,-0.73213879322238,-0.35674582974977
0.96,-0.144,-0.73980652179413,-0.36029072773001
0.97,-0.1455,-0.7471589217303,-0.36367474192594
0.98,-0.147,-0.75435439950617,-0.36697596265361
0.99,-0.1485,-0.76140507915416,-0.37020054594855
1,-0.15,-0.76830443729277,-0.37334535609076
1.01,-0.147,-0.68392961029878,-0.33249866190995
1.02,-0.144,-0.59914340078753,-0.29136073761084
1.03,-0.141,-0.51361904904009,-0.24975429538282
1.04,-0.138,-0.42796041372322,-0.20800505044752
1.05,-0.135,-0.34226567799862,-0.16616804913845
1.06,-0.132,-0.25653285655668,-0.12424278794959
1.07,-0.129,-0.17075228222852,-0.082224565131171
1.08,-0.126,-0.10525142538226,-0.050261163470264
1.09,-0.123,-0.077517521347774,-0.037110453525736
1.1,-0.12,-0.049836855467457,-0.023960890945678
1.11,-0.117,-0.022205294627388,-0.010810647522276
1.12,-0.114,-1.7088127451337e-10,-0.00022542666057805
1.13,-0.111,-1.476951495675e-13,-0.00022542807557324
1.14,-0.108,1.7037777843432e-10,-0.00022542949056234
1.15,-0.105,3.4100543793065e-10,-0.00022543090554539
1.16,-0.102,5.1172103638419e-10,-0.00022543232053117
1.17,-0.099,6.8227714586567e-10,-0.00022543373550656
1.18,-0.096,8.5287117005637e-10,-0.00022543515051123
1.19,-0.093,1.0236195039718e-09,-0.00022543656549666
1.2,-0.09,1.1942429932945e-09,-0.00022543798048696
1.21,-0.087,1.3649362532023e-09,-0.00022543939546184
1.22,-0.084,1.5355591001047e-09,-0.00022544081047251
1.23,-0.081,1.7061934908228e-09,-0.00022544222545107
1.24,-0.078,1.8771212189744e-09,-0.00022544364044172
1.25,-0.075,2.0476339764727e-09,-0.00022544505541496
1.26,-0.072,2.2183156692918e-09,-0.00022544647040699
1.27,-0.069,2.3891102005908e-09,-0.00022544788541622
1.28,-0.066,2.5595812176506e-09,-0.00022544930040472
1.29,-0.063,2.7301368776151e-09,-0.00022545071533282
1.3,-0.06,2.9009278954655e-09,-0.00022545213032827
1.31,-0.057,3.0715586947605e-09,-0.00022545354529895
1.32,-0.054,3.2421906629271e-09,-0.00022545496029773
1.33,-0.051,3.4128772946089e-09,-0.00022545637529342
1.34,-0.048,3.5835859703096e-09,-0.00022545779028105
1.35,-0.045,3.7541235701662e-09,-0.00022545920524673
1.36,-0.042,3.9249561497279e-09,-0.00022546062023094
1.37,-0.039,4.0954409227518e-09,-0.00022546203522114
1.38,-0.036,4.266237508675e-09,-0.00022546345020337
1.39,-0.033,4.4369532146712e-09,-0.00022546486521917
1.4,-0.03,4.6076394148541e-09,-0.00022546628018463
1.41,-0.027,4.7780404249152e-09,-0.00022546769517722
1.42,-0.024,4.9489409158652e-09,-0.00022546911016846
1.43,-0.021,5.1195111288518e-09,-0.00022547052514547
1.44,-0.018,5.2901318653954e-09,-0.00022547194010072
1.45,-0.015,5.4607982932611e-09,-0.00022547335510904
1.46,-0.012,5.6315512559304e-09,-0.00022547477008435
1.47,-0.0089999999999997,-1.3306667372799e-14,-0.00022542807558638
1.48,-0.0059999999999997,-5.6314355508164e-09,-0.0002253846224403
1.49,-0.0029999999999997,8.0494737543751e-10,-0.00022543096815424
1.5,0,-7.3112905839149e-14,-0.00022542808953465
