time,disp_y_top,react_y_top,stress_yy
0,0,0,0
0.01,-0.0015,-0.024032998547679,-0.011998329790187
0.02,-0.003,-0.031095932670308,-0.015517350706701
0.03,-0.0045,-0.038160693318007,-0.01903418619414
0.04,-0.006,-0.045227216740404,-0.022548712728563
0.05,-0.0075,-0.052295499415984,-0.02606092496017
0.06,-0.009,-0.05936553834923,-0.029570816646076
0.07,-0.0105,-0.066437330455512,-0.033078381791672
0.08,-0.012,-0.073510872696066,-0.036583614416092
0.09,-0.0135,-0.080586162082999,-0.040086508554122
0.1,-0.015,-0.087663195676457,-0.043587058254877
0.11,-0.0165,-0.094741970584682,-0.047085257582353
0.12,-0.018,-0.101822483967,-0.05058110061572
0.13,-0.0195,-0.10839157040593,-0.053819558303301
0.14,-0.021,-0.11404096530543,-0.056598137752291
0.15,-0.0225,-0.11966393875205,-0.059360978195222
0.16,-0.024,-0.12526284351664,-0.062109246277875
0.17,-0.0255,-0.13083973547371,-0.064843981118487
0.18,-0.027,-0.1363963985246,-0.067566080354063
0.19,-0.0285,-0.14193441744489,-0.070276341058879
0.2,-0.03,-0.14725383423564,-0.072875526558251
0.21,-0.0315,-0.15088048464904,-0.074634582555473
0.22,-0.033,-0.1544576468515,-0.076367435318244
0.23,-0.0345,-0.15798844872375,-0.078075662941519
0.24,-0.036,-0.16147558368341,-0.079760638573705
0.25,-0.0375,-0.16492177248358,-0.081423732334635
0.26,-0.039,-0.16832940427279,-0.083066152649633
0.27,-0.0405,-0.17170066061587,-0.084689003359452
0.28,-0.042,-0.17503753963076,-0.086293295820564
0.29,-0.0435,-0.17834187663342,-0.087879959292819
0.3,-0.045,-0.18161536179628,-0.089449849828864
0.31,-0.0465,-0.18485955545418,-0.091003757979528
0.32,-0.048,-0.18807590140975,-0.092542415493186
0.33,-0.0495,-0.19126573854371,-0.094066501162726
0.34,-0.051,-0.19443031099217,-0.095576645951088
0.35,-0.0525,-0.19757077709557,-0.097073437498656
0.36,-0.054,-0.2006882172942,-0.098557424102734
0.37,-0.0555,-0.20378364112456,-0.10002911824218
0.38,-0.057,-0.20685799343154,-0.10148899970826
0.39,-0.0585,-0.20991215990178,-0.10293751839495
0.4,-0.06,-0.21294678414106,-0.10437501089006
0.41,-0.0615,-0.21596302201576,-0.10580204518139
0.42,-0.063,-0.2189614236247,-0.10721891086892
0.43,-0.0645,-0.22194268265439,-0.10862596076881
0.44,-0.066,-0.22490745380304,-0.11002352796499
0.45,-0.0675,-0.22785635568415,-0.11141192728957
0.46,-0.069,-0.23078997350757,-0.11279145666201
0.47,-0.0705,-0.23370886146475,-0.11416239830418
0.48,-0.072,-0.23661354495084,-0.11552501984698
0.49,-0.0735,-0.23943337297533,-0.11684530474625
0.5,-0.075,-0.24222259455796,-0.11814945454622
0.51,-0.0765,-0.2449981460907,-0.11944564731199
0.52,-0.078,-0.24776048543494,-0.12073411623445
0.53,-0.0795,-0.25051004914405,-0.12201508438635
0.54,-0.081,-0.25324725522696,-0.12328876520417
0.55,-0.0825,-0.25597250263101,-0.12455536244084
0.56,-0.084,-0.25868617237645,-0.12581507074901
0.57,-0.0855,-0.2613886286361,-0.12706807622441
0.58,-0.087,-0.26408021972615,-0.12831455690897
0.59,-0.0885,-0.26676127902014,-0.12955468325531
0.6,-0.09,-0.26943212580486,-0.13078861855894
0.61,-0.0915,-0.27202879975969,-0.13198500395517
0.62,-0.093,-0.27451840591396,-0.13312775829573
0.63,-0.0945,-0.27699729262679,-0.1342641585378
0.64,-0.096,-0.27946574577645,-0.13539435220965
0.65,-0.0975,-0.28192407160365,-0.13651849595513
0.66,-0.099,-0.28437256285294,-0.13763674014176
0.67,-0.1005,-0.28681150242081,-0.13874922976343
0.68,-0.102,-0.28924116260263,-0.13985610442844
0.69,-0.1035,-0.29166180567477,-0.14095749862475
0.7,-0.105,-0.29407368436272,-0.14205354196963
0.71,-0.1065,-0.29647704229041,-0.14314435944423
0.72,-0.108,-0.31319385427418,-0.15140663706141
0.73,-0.1095,-0.33328346188371,-0.16135072050601
0.74,-0.111,-0.35323575911571,-0.17121932191368
0.75,-0.1125,-0.37304753689895,-0.18101077879444
0.76,-0.114,-0.39271637154896,-0.19072382746883
0.77,-0.1155,-0.41224070515551,-0.20035762978293
0.78,-0.117,-0.43161982830921,-0.20991176808829
0.79,-0.1185,-0.45085384999323,-0.21938623138027
0.8,-0.12,-0.46994365438593,-0.22878139485633
0.81,-0.1215,-0.48889084628233,-0.23809799373042
0.82,-0.123,-0.5076976874832,-0.24733709245356
0.83,-0.1245,-0.52636702603567,-0.25650005024969
0.84,-0.126,-0.54490222168157,-0.265588484614
0.85,-0.1275,-0.56330706903236,-0.27460423356633
0.86,-0.129,-0.58158572109026,-0.28354931792131
0.87,-0.1305,-0.59974261490041,-0.2924259045017
0.88,-0.132,-0.617782400894,-0.30123627108163
0.89,-0.1335,-0.63570987719855,-0.30998277367674
0.9,-0.135,-0.6535299296968,-0.31866781663283
0.91,-0.1365,-0.67124747844892,-0.32729382579041
0.92,-0.138,-0.68886743063653,-0.33586322486286
0.93,-0.1395,-0.70639464012957,-0.34437841504855
0.94,-0.141,-0.72383387341859,-0.35284175778373
0.95,-0.1425,-0.74118978154301,-0.36125556048711
0.96,-0.144,-0.75846687765272,-0.36962206506956
0.97,-0.1455,-0.77464688844314,-0.37743681947203
0.98,-0.147,-0.78981033805069,-0.38474026577745
0.99,-0.1485,-0.80485223046753,-0.39197610996744
1,-0.15,-0.81978051235712,-0.39914833606823
1.01,-0.147,-0.77375338956279,-0.37696083784513
1.02,-0.144,-0.72773466523822,-0.35473636718529
1.03,-0.141,-0.68172634514009,-0.33247591228461
1.04,-0.138,-0.6357285655319,-0.31017963104805
1.05,-0.135,-0.5897414638075,-0.28784768168233
1.06,-0.132,-0.54376517906757,-0.26548022314581
1.07,-0.129,-0.4977998520635,-0.24307741508462
1.08,-0.126,-0.45143472784883,-0.22040401731577
1.09,-0.123,-0.40487099630438,-0.19757709132791
1.1,-0.12,-0.35828174599188,-0.17469764715211
1.11,-0.117,-0.31166280216152,-0.15176367628275
1.12,-0.114,-0.26501256254154,-0.1287743297585
1.13,-0.111,-0.21833084133642,-0.10572953550897
1.14,-0.108,-0.18432803252178,-0.089028482882175
1.15,-0.105,-0.16956784344819,-0.081993761079298
1.16,-0.102,-0.1548109578034,-0.074946937274036
1.17,-0.099,-0.14005954709202,-0.067889097777586
1.18,-0.096,-0.12531362090282,-0.060820271944699
1.19,-0.093,-0.11057318608081,-0.053740508909108
1.2,-0.09,-0.095838251869765,-0.046649852540835
1.21,-0.087,-0.081108828557711,-0.039548346993751
1.22,-0.084,-0.066383360655482,-0.032435269348986
1.23,-0.081,-0.051669382777116,-0.025314343741784
1.24,-0.078,-0.036973037959545,-0.018188665966676
1.25,-0.075,-0.022294201760421,-0.011058257846923
1.26,-0.072,-0.0076303335285365,-0.0039219377177422
1.27,-0.069,5.9906769418728e-14,-0.00020334358459037
1.28,-0.066,5.8885952415751e-14,-0.00020334358528706
1.29,-0.063,5.588261583621e-14,-0.00020334358599009
1.3,-0.06,8.6340136768088e-14,-0.00020334358669331
1.31,-0.057,1.6198211188708e-13,-0.00020334358738488
1.32,-0.054,1.2653362041416e-13,-0.00020334358806775
1.33,-0.051,7.7064783794343e-14,-0.00020334358877244
1.34,-0.048,1.4903664477398e-13,-0.00020334358948097
1.35,-0.045,1.6422147048798e-13,-0.0002033435901772
1.36,-0.042,6.2323586504272e-14,-0.00020334359088111
1.37,-0.039,1.3207166073672e-13,-0.00020334359158155
1.38,-0.036,1.5337527289069e-13,-0.00020334359227741
1.39,-0.033,1.6999822332979e-13,-0.00020334359297553
1.4,-0.03,3.0401290480268e-13,-0.00020334359366917
1.41,-0.027,1.3252539087557e-13,-0.00020334359436577
1.42,-0.024,1.734011578666e-13,-0.00020334359507038
1.43,-0.021,1.2696908682861e-13,-0.0002033435957687
1.44,-0.018,1.5948146395075e-13,-0.00020334359646182
1.45,-0.015,1.850952049509e-13,-0.00020334359715586
1.46,-0.012,1.9141670500988e-13,-0.00020334359785266
1.47,-0.0089999999999997,3.4647670779794e-13,-0.00020334359854934
1.48,-0.0059999999999997,2.4993161633715e-13,-0.00020334359925636
1.49,-0.0029999999999997,2.4347401163607e-13,-0.00020334359994111
1.5,0,2.7652155264461e-13,-0.00020334360064331
