time,disp_y_top,react_y_top,stress_yy
0,0,0,0
0.01,-0.0015,-0.013556757526066,-0.0067678982321613
