time,disp_y_top,react_y_top,stress_yy
0,0,0,0
0.01,-0.002,-0.005362624464749,-0.0026766733109181
