time,disp_y_top,react_y_top,stress_yy
0,0,0,0
0.01,-0.0015,-0.0071564026360372,-0.00056924267066941
0.02,-0.003,-0.01153885960886,-0.00091742501561914
0.03,-0.0045,-0.013782696746747,-0.0010953726973486
0.04,-0.006,-0.015893284456749,-0.0012626151538292
0.05,-0.0075,-0.017618251387116,-0.001399120486374
0.06,-0.009,-0.019325279141234,-0.0015341234934818
0.07,-0.0105,-0.020976397197489,-0.0016645908376409
0.08,-0.012,-0.043318642368128,-0.0034407933679377
0.09,-0.0135,-0.069805973244434,-0.0055450816509576
0.1,-0.015,-0.093399459781998,-0.0074175297130689
0.11,-0.0165,-0.10599411391201,-0.0084147057013826
0.12,-0.018,-0.11675615166602,-0.0092655024815364
0.13,-0.0195,-0.12630174220615,-0.010018862275922
0.14,-0.021,-0.13470863166864,-0.010680987194983
0.15,-0.0225,-0.14215633965574,-0.011266245096765
0.16,-0.024,-0.14860863236957,-0.01177179314259
0.17,-0.0255,-0.15382180405329,-0.012178253564342
0.18,-0.027,-0.15826430382482,-0.012523000023051
0.19,-0.0285,-0.16218895571936,-0.012826197005662
0.2,-0.03,-0.1657981305226,-0.01310393909642
0.21,-0.0315,-0.16855250405063,-0.013313433081156
0.22,-0.033,-0.17104234704039,-0.013501606496107
0.23,-0.0345,-0.19445819024756,-0.015355069708533
0.24,-0.036,-0.23957133766457,-0.01893512217287
0.25,-0.0375,-0.28155270165115,-0.022264432514005
0.26,-0.039,-0.31969718134466,-0.025286527784416
0.27,-0.0405,-0.35119494290078,-0.027777874985779
0.28,-0.042,-0.37166974144489,-0.02939102698235
0.29,-0.0435,-0.38850233661882,-0.030713048483784
0.3,-0.045,-0.40283184237676,-0.03183452037367
0.31,-0.0465,-0.41530036932331,-0.032806590591634
0.32,-0.048,-0.42550372939193,-0.033597197489205
0.33,-0.0495,-0.43497175372975,-0.034328125765193
0.34,-0.051,-0.44374714545515,-0.035002901182167
0.35,-0.0525,-0.45202139455271,-0.035636844844192
0.36,-0.054,-0.45904864777293,-0.036170638568389
0.37,-0.0555,-0.46570133916283,-0.036673857025311
0.38,-0.057,-0.47191969621165,-0.037141840308248
0.39,-0.0585,-0.49078502648382,-0.038616543560388
0.4,-0.06,-0.55569389078266,-0.043759505439196
0.41,-0.0615,-0.61583287618631,-0.048521594079481
0.42,-0.063,-0.67119388221118,-0.052901210727772
0.43,-0.0645,-0.72169872781054,-0.056891544954373
0.44,-0.066,-0.75941918140555,-0.059862047202614
0.45,-0.0675,-0.78645801774121,-0.06197990895534
0.46,-0.069,-0.80989988541882,-0.063808756747836
0.47,-0.0705,-0.83004992793709,-0.065373104087626
0.48,-0.072,-0.84701055211444,-0.06668112586168
0.49,-0.0735,-0.86230535852115,-0.067854530324809
0.5,-0.075,-0.87627326152263,-0.068920628716717
0.51,-0.0765,-0.88929814605818,-0.069909977683005
0.52,-0.078,-0.90064009345158,-0.070763456788841
0.53,-0.0795,-0.91136808999994,-0.071566653846648
0.54,-0.081,-0.92155972925883,-0.072325927133588
0.55,-0.0825,-0.93138347453264,-0.073054760111178
0.56,-0.084,-0.99950088251265,-0.078431110687697
0.57,-0.0855,-1.0799774897077,-0.084792742167363
0.58,-0.087,-1.1544948844284,-0.09067781620772
0.59,-0.0885,-1.2230315707001,-0.096083667025869
0.6,-0.09,-1.2859874787158,-0.10104122609953
0.61,-0.0915,-1.3264984653453,-0.10420932926551
0.62,-0.093,-1.3598391090595,-0.10680304755283
0.63,-0.0945,-1.3890294922722,-0.10906271980362
0.64,-0.096,-1.4137666811686,-0.11096390669763
0.65,-0.0975,-1.4356732125627,-0.11263612244215
0.66,-0.099,-1.4557576854248,-0.11416017754381
0.67,-0.1005,-1.4744008355538,-0.11556670027498
0.68,-0.102,-1.4916398321939,-0.11685870079335
0.69,-0.1035,-1.5072214647262,-0.1180160261662
0.7,-0.105,-1.522172652722,-0.11912123203013
0.71,-0.1065,-1.5364060404739,-0.12016774830182
0.72,-0.108,-1.5742290779702,-0.12309630379877
0.73,-0.1095,-1.6744616763838,-0.13100422434999
0.74,-0.111,-1.7679526313712,-0.13837351085889
0.75,-0.1125,-1.8547784443308,-0.14520891604483
0.76,-0.114,-1.9349744698162,-0.15151194323618
0.77,-0.1155,-2.0067082062884,-0.15713573789598
0.78,-0.117,-2.0533040774853,-0.16075447510548
0.79,-0.1185,-2.093345220778,-0.16384644130148
0.8,-0.12,-2.1280773986815,-0.16651116168826
0.81,-0.1215,-2.1575252872544,-0.16874973860966
0.82,-0.123,-2.1842395868314,-0.17076643795347
0.83,-0.1245,-2.2089701798712,-0.17262144297927
0.84,-0.126,-2.2319870578318,-0.17433667564664
0.85,-0.1275,-2.2532989755498,-0.17591223759583
0.86,-0.129,-2.2732031525078,-0.17737220831901
0.87,-0.1305,-2.2923555072424,-0.17876965835828
0.88,-0.132,-2.3109917426066,-0.18012354111748
0.89,-0.1335,-2.4240997562742,-0.18901800786105
0.9,-0.135,-2.5362751877874,-0.19783767502694
0.91,-0.1365,-2.6411506753767,-0.20607330899975
0.92,-0.138,-2.7384309380495,-0.21370011781738
0.93,-0.1395,-2.8284580529661,-0.22074345297394
0.94,-0.141,-2.8955498919404,-0.22595667161962
0.95,-0.1425,-2.946987158211,-0.22991834105863
0.96,-0.144,-2.9918939103125,-0.23335455023516
0.97,-0.1455,-3.0313603585557,-0.2363511398868
0.98,-0.147,-3.0660685575358,-0.23896223258278
0.99,-0.1485,-3.0976338027498,-0.24131793288575
1,-0.15,-3.1271965243031,-0.24350991256825
1.01,-0.147,-2.7350139365905,-0.21306037687779
1.02,-0.144,-2.3440083703081,-0.1826448442865
1.03,-0.141,-1.9545026430972,-0.15228841046705
1.04,-0.138,-1.5689339372732,-0.12218819680628
1.05,-0.135,-1.2028426894068,-0.093596136795363
1.06,-0.132,-0.87700273722336,-0.068232272752747
1.07,-0.129,-0.57560658485051,-0.04479383157669
1.08,-0.126,-0.30998876936209,-0.024179946337407
1.09,-0.123,-0.10025092839866,-0.0079853912789954
1.1,-0.12,-7.3204034725812e-14,-0.00029955918991056
1.11,-0.117,-1.4078074304729e-12,-0.00029955887369672
1.12,-0.114,-1.9275567152655e-12,-0.00029955855862605
1.13,-0.111,-2.5177646044902e-12,-0.00029955824356263
1.14,-0.108,-2.9985080584841e-12,-0.00029955792850514
1.15,-0.105,-2.3317618528642e-13,-0.00029956214671095
1.16,-0.102,3.5439876216109e-13,-0.00029955936857832
1.17,-0.099,2.1042201675889e-12,-0.00029955703849058
1.18,-0.096,-1.3714819515796e-13,-0.00029956246446537
1.19,-0.093,-5.0344703119172e-13,-0.00029955953025425
1.2,-0.09,-8.6690753435813e-13,-0.00029955708202546
1.21,-0.087,1.7858913048348e-13,-0.00029956308098953
1.22,-0.084,6.1506887670331e-13,-0.00029955957025376
1.23,-0.081,1.2982131721964e-12,-0.00029955666617152
1.24,-0.078,1.6523726204448e-13,-0.00029956370825132
1.25,-0.075,2.29246308165e-13,-0.00029955961255252
1.26,-0.072,4.2197363021878e-13,-0.00029955619301573
1.27,-0.069,-9.748543741151e-13,-0.00029956444214281
1.28,-0.066,-5.1634011821088e-13,-0.00029955978599632
1.29,-0.063,-8.854285230017e-14,-0.00029955589574233
1.3,-0.06,2.1199100527913e-13,-0.00029956526157034
1.31,-0.057,1.8879745581673e-12,-0.00029955986938823
1.32,-0.054,3.1557456254315e-12,-0.00029955538092016
1.33,-0.051,-4.6923253585636e-13,-0.00029956630324406
1.34,-0.048,-1.7403631018078e-12,-0.00029955995202
1.35,-0.045,-2.5913247483842e-12,-0.00029955472647979
1.36,-0.042,1.1290718014668e-12,-0.00029956746730714
1.37,-0.039,-3.9825235225225e-13,-0.00029956013269871
1.38,-0.036,-1.9288777766491e-12,-0.00029955414275581
1.39,-0.033,1.8382353033145e-12,-0.00029956885959225
1.4,-0.03,2.3812831640222e-13,-0.00029956032420611
1.41,-0.027,-1.70852932979e-12,-0.00029955343504734
1.42,-0.024,-1.9340017622796e-13,-0.00029957055409682
1.43,-0.021,6.7761424523229e-14,-0.00029956049397809
1.44,-0.018,3.5951397803593e-14,-0.00029956785301027
1.45,-0.015,3.1989662078959e-13,-0.00029956035391751
1.46,-0.012,8.4341570702909e-13,-0.00029955517922365
1.47,-0.0089999999999997,-6.0311865043334e-14,-0.0002995697967879
1.48,-0.0059999999999997,-1.1676545329555e-12,-0.00029956065570097
1.49,-0.0029999999999997,-2.2745715456359e-12,-0.00029955395715669
1.5,0,8.397160911557e-13,-0.0002995578351869
