time,disp_y_top,react_y_top,stress_yy
0,0,0,0
0.01,-0.003,-0.011441330794422,-0.00090969635416447
0.02,-0.006,-0.016638041424389,-0.0013218588127018
0.03,-0.009,-0.020858222638034,-0.0016558067669618
0.04,-0.012,-0.04588319471214,-0.0036441015222575
0.05,-0.015,-0.09558747964329,-0.0075907602824446
0.06,-0.018,-0.12236766774745,-0.00971009979911
0.07,-0.021,-0.1426501063402,-0.011309250181984
0.08,-0.024,-0.15726500133393,-0.012454740019146
0.09,-0.027,-0.16947989914056,-0.013407026817734
0.1,-0.03,-0.17973121627386,-0.014201165200266
0.11,-0.033,-0.18888757267357,-0.014906469172158
0.12,-0.036,-0.26436096376995,-0.020888721218192
0.13,-0.039,-0.35074292759962,-0.027733778034105
0.14,-0.042,-0.39934478804784,-0.031566162561083
0.15,-0.045,-0.43465322940768,-0.034333932491101
0.16,-0.048,-0.46319683176582,-0.036557071631148
0.17,-0.051,-0.48736132725626,-0.038426355415318
0.18,-0.054,-0.50835215450951,-0.040038322022838
0.19,-0.057,-0.52768672718548,-0.041514335519722
0.2,-0.06,-0.59157666793166,-0.046536334394018
0.21,-0.063,-0.72252627643359,-0.056897984621686
0.22,-0.066,-0.81862207580947,-0.064476460529095
0.23,-0.069,-0.87761482749077,-0.069090589149796
0.24,-0.072,-0.92366969133732,-0.072663099515813
0.25,-0.075,-0.96315876510714,-0.075702917697294
0.26,-0.078,-0.99769900673364,-0.078340066430464
0.27,-0.081,-1.0292468966793,-0.080731598925997
0.28,-0.084,-1.0697189074127,-0.083828781741761
0.29,-0.087,-1.2445200609338,-0.097635146768398
0.3,-0.09,-1.3904627440324,-0.10913261298537
0.31,-0.093,-1.4774492283053,-0.11592167244621
0.32,-0.096,-1.5439930158499,-0.12106614038814
0.33,-0.099,-1.600287750758,-0.12537925469939
0.34,-0.102,-1.6502720367639,-0.12917651441237
0.35,-0.105,-1.695412515316,-0.13257616303774
0.36,-0.108,-1.7374686699063,-0.13572030784568
0.37,-0.111,-1.9126420045276,-0.14948117249214
0.38,-0.114,-2.1031379920385,-0.16445885587749
0.39,-0.117,-2.2340159149906,-0.17467306269745
0.4,-0.12,-2.3257199570344,-0.18174727619699
0.41,-0.123,-2.4011660196382,-0.18750568361984
0.42,-0.126,-2.4677676258522,-0.19254108017292
0.43,-0.129,-2.5280450611618,-0.19705617372833
0.44,-0.132,-2.583915575792,-0.20120565094783
0.45,-0.135,-2.7379965802755,-0.21318483155541
0.46,-0.138,-2.9702382912993,-0.23139796807171
0.47,-0.141,-3.15035289708,-0.24544374999783
0.48,-0.144,-3.271270024782,-0.25475429265434
0.49,-0.147,-3.3690030717689,-0.26219201852934
0.5,-0.15,-3.4537961937462,-0.26857526516962
0.51,-0.153,-3.5308964516673,-0.27432490460611
0.52,-0.156,-3.6025266487036,-0.27961893655735
0.53,-0.159,-3.7160022900269,-0.28824047343387
0.54,-0.162,-3.9944941356048,-0.31003309063578
0.55,-0.165,-4.2311920910199,-0.32847998701263
0.56,-0.168,-4.3896427882827,-0.34067352064303
0.57,-0.171,-4.5135555426984,-0.35008551872231
0.58,-0.174,-4.6186613703894,-0.35796958844051
0.59,-0.177,-4.7115917142627,-0.36485620365602
0.6,-0.18,-4.7957526402859,-0.37102061298357
0.61,-0.183,-4.8752248084118,-0.37678974584271
0.62,-0.186,-5.1357804804564,-0.39701338465699
0.63,-0.189,-5.4369321486887,-0.42047344136878
0.64,-0.192,-5.6936874034058,-0.44037577621751
0.65,-0.195,-5.8864332503684,-0.45514413127648
0.66,-0.198,-6.0352935740356,-0.46638011719841
0.67,-0.201,-6.1644900869322,-0.47601503524901
0.68,-0.204,-6.2798104544047,-0.4845112641504
0.69,-0.207,-6.3857476985385,-0.49222958046616
0.7,-0.21,-6.4836018843755,-0.49927508062515
0.71,-0.213,-6.5731844180878,-0.50563244929909
0.72,-0.216,-6.6586139124906,-0.51163600262206
0.73,-0.219,-6.7402461543217,-0.51731538324176
0.74,-0.222,-6.8189926057465,-0.52274546474968
0.75,-0.225,-6.8949062507942,-0.52793119037682
0.76,-0.228,-7.1786385168717,-0.54972380818528
0.77,-0.231,-7.6015937574576,-0.58264655329817
0.78,-0.234,-7.9829436741009,-0.61222679644885
0.79,-0.237,-8.3298476990485,-0.63902913204443
0.8,-0.24,-8.6110904511409,-0.66057929075157
0.81,-0.243,-8.8262162669689,-0.67683239656648
0.82,-0.246,-9.0125540236734,-0.69074999710284
0.83,-0.249,-9.171662460643,-0.70245749439848
0.84,-0.252,-9.3080267433998,-0.71231634135719
0.85,-0.255,-9.4327944347504,-0.72121316318672
0.86,-0.258,-9.5486298601035,-0.72936338433726
0.87,-0.261,-9.6566733578608,-0.73686439982937
0.88,-0.264,-9.7588688051931,-0.74386933558713
0.89,-0.267,-9.8526370748421,-0.75018171614056
0.9,-0.27,-9.9421616801325,-0.75612991371974
0.91,-0.273,-10.027446036808,-0.76171621443508
0.92,-0.276,-10.109879443696,-0.7670525558024
0.93,-0.279,-10.189282017016,-0.77212619485427
0.94,-0.282,-10.321662184822,-0.78142054262162
0.95,-0.285,-10.761971512321,-0.81531314202396
0.96,-0.288,-11.174749793955,-0.8469846152895
0.97,-0.291,-11.553273385715,-0.87591023602435
0.98,-0.294,-11.886537358612,-0.90120881873531
0.99,-0.297,-12.182271652123,-0.92348859567259
1,-0.3,-12.446768607118,-0.94324595723919
1.01,-0.294,-10.254513662972,-0.7764779606335
1.02,-0.288,-8.0672283416067,-0.60947987289156
1.03,-0.282,-6.0992365337594,-0.4598569548607
1.04,-0.276,-4.3726508595116,-0.32953202119669
1.05,-0.27,-2.6728914308704,-0.20081706797418
1.06,-0.264,-1.2514793619005,-0.09400065504852
1.07,-0.258,-0.16583209581878,-0.013237861234877
1.08,-0.252,-4.9790879732214e-13,-0.00099898250765428
1.09,-0.246,-5.7438232755534e-13,-0.0009989825050135
1.1,-0.24,-8.2493252697168e-13,-0.00099898249844301
1.11,-0.234,-1.4528964841862e-12,-0.0009989824918748
1.12,-0.228,-1.7321317880923e-12,-0.00099898248530466
1.13,-0.222,-1.8943467628891e-12,-0.000998982482549
1.14,-0.216,-1.7191504152525e-12,-0.00099898247597915
1.15,-0.21,-1.3736739661209e-12,-0.00099898247340488
1.16,-0.204,-1.6133415556876e-12,-0.00099898246683469
1.17,-0.198,-2.5666050028025e-12,-0.00099898246026566
1.18,-0.192,-1.9775352984305e-12,-0.00099898245751379
1.19,-0.186,-2.7751189382566e-12,-0.00099898245094369
1.2,-0.18,-2.2527456838834e-12,-0.00099898244624449
1.21,-0.174,-3.0778890670018e-12,-0.00099898244366909
1.22,-0.168,-3.2642947420363e-12,-0.00099898243710023
1.23,-0.162,-3.6503656856223e-12,-0.00099898243434974
1.24,-0.156,-3.9071945320067e-12,-0.00099898242777971
1.25,-0.15,-3.7092778884361e-12,-0.00099898242120936
1.26,-0.144,-4.5775363141372e-12,-0.00099898241464001
1.27,-0.138,-5.1532900515616e-12,-0.00099898241380172
1.28,-0.132,-6.2377414507863e-12,-0.00099898241505394
1.29,-0.126,-6.8382789910826e-12,-0.00099898241222882
1.3,-0.12,-7.4893609973507e-12,-0.00099898240747902
1.31,-0.114,-7.6610888094427e-12,-0.0009989824009089
1.32,-0.108,-7.7754311185284e-12,-0.00099898239784984
1.33,-0.102,-8.0101020861502e-12,-0.00099898239909461
1.34,-0.095999999999999,-8.1562433885043e-12,-0.00099898239252418
1.35,-0.089999999999999,-8.4836282210048e-12,-0.00099898238595446
1.36,-0.083999999999999,-9.0354928730714e-12,-0.00099898237938535
1.37,-0.077999999999999,-9.3771168469523e-12,-0.00099898237281665
1.38,-0.071999999999999,-9.4180347555266e-12,-0.00099898237006473
1.39,-0.065999999999999,-9.1486369261512e-12,-0.000998982367489
1.4,-0.059999999999999,-9.8815433967851e-12,-0.00099898236450444
1.41,-0.053999999999999,-9.960287156582e-12,-0.00099898235793556
1.42,-0.047999999999999,-1.0679108396804e-11,-0.00099898235136543
1.43,-0.041999999999999,-1.1078183833841e-11,-0.00099898234861351
1.44,-0.035999999999999,-1.1014403966461e-11,-0.00099898234573211
1.45,-0.029999999999999,-1.1584414577404e-11,-0.000998982344846
1.46,-0.023999999999999,-1.1717561266947e-11,-0.00099898233827733
1.47,-0.017999999999999,-1.242906023853e-11,-0.00099898233564394
1.48,-0.011999999999999,-1.2379151303072e-11,-0.00099898233289476
1.49,-0.0059999999999993,-1.3103286092781e-11,-0.0009989823279514
1.5,0,-1.3772139035783e-11,-0.00099898232522981
