time,disp_y_top,react_y_top,stress_yy
0,0,0,0
0.01,-0.002,-0.0098417476645211,-0.00078271569832077
0.02,-0.004,-0.015512187994926,-0.0012329929479075
0.03,-0.006,-0.0201500242604,-0.0016007307689204
0.04,-0.008,-0.024146336897126,-0.0019171281103061
0.05,-0.01,-0.027927237258019,-0.0022160907512199
0.06,-0.012,-0.048501280076981,-0.0038506570747918
0.07,-0.014,-0.08839799297304,-0.0070196372224777
0.08,-0.016,-0.12122678496254,-0.0096233631576722
0.09,-0.018,-0.14608464568865,-0.011591212278616
0.1,-0.02,-0.16818811052528,-0.013337883571742
0.11,-0.022,-0.18821549447213,-0.014917438577163
0.12,-0.024,-0.20677973099312,-0.016378774611545
0.13,-0.026,-0.22388166644818,-0.017722025182468
0.14,-0.028,-0.23978151830211,-0.018967932023572
0.15,-0.03,-0.25431027100355,-0.020103116025989
0.16,-0.032,-0.26821167408402,-0.021186811131577
0.17,-0.034,-0.28145370723645,-0.022216513694196
0.18,-0.036,-0.29425526171847,-0.023209684623964
0.19,-0.038,-0.34232997927201,-0.027008067764258
0.2,-0.04,-0.40713771119954,-0.032133765840896
0.21,-0.042,-0.46711646709423,-0.036870772182053
0.22,-0.044,-0.51944891495315,-0.040995869056469
0.23,-0.046,-0.56220260858182,-0.044356277300883
0.24,-0.048,-0.60117966658422,-0.047412880014764
0.25,-0.05,-0.63710584083431,-0.050223396524162
0.26,-0.052,-0.67052041720478,-0.052830788773517
0.27,-0.054,-0.70215776975711,-0.055293473372237
0.28,-0.056,-0.73220560823636,-0.057626407624246
0.29,-0.058,-0.76063159958044,-0.059827044798026
0.3,-0.06,-0.78787738612207,-0.061930592921105
0.31,-0.062,-0.81407640143664,-0.063947785891708
0.32,-0.064,-0.8404389800412,-0.065975025445043
0.33,-0.066,-0.93342121812675,-0.07330174984338
0.34,-0.068,-1.0208761800401,-0.080182629673269
0.35,-0.07,-1.1008765574865,-0.086465172334687
0.36,-0.072,-1.1721441523513,-0.092048219210544
0.37,-0.074,-1.234038181627,-0.096881319630296
0.38,-0.076,-1.2910171962047,-0.10131860936821
0.39,-0.078,-1.3441345950662,-0.10544360641347
0.4,-0.08,-1.3942096156478,-0.1093213635849
0.41,-0.082,-1.4417138478424,-0.11298944538898
0.42,-0.084,-1.4872161706324,-0.11649314138667
0.43,-0.086,-1.530934649785,-0.11984989412837
0.44,-0.088,-1.5729622754671,-0.12306715870951
0.45,-0.09,-1.6136601086646,-0.12617381130526
0.46,-0.092,-1.6975553960086,-0.13271486581201
0.47,-0.094,-1.8124859369407,-0.14172068604654
0.48,-0.096,-1.9188140115445,-0.15003512068538
0.49,-0.098,-2.01708137732,-0.15770146564578
0.5,-0.1,-2.1038425499711,-0.1644468735687
0.51,-0.102,-2.1837839062338,-0.17064349506452
0.52,-0.104,-2.2581334874823,-0.17638855826815
0.53,-0.106,-2.3282050747118,-0.18178630116806
0.54,-0.108,-2.3949090805438,-0.18690908610338
0.55,-0.11,-2.4587985353128,-0.19180096244592
0.56,-0.112,-2.5202711768915,-0.19649352745628
0.57,-0.114,-2.5796902125019,-0.2010157793309
0.58,-0.116,-2.6370166221463,-0.20536472914257
0.59,-0.118,-2.7217407029991,-0.21188824109369
0.6,-0.12,-2.8629792219783,-0.22290383842795
0.61,-0.122,-2.9954897773551,-0.23321614881634
0.62,-0.124,-3.1177172177134,-0.2427030189324
0.63,-0.126,-3.2280805644065,-0.25123891798576
0.64,-0.128,-3.3304792231096,-0.25913296190578
0.65,-0.13,-3.4265721307174,-0.26651702928103
0.66,-0.132,-3.5173646344251,-0.27347070238483
0.67,-0.134,-3.6039026079758,-0.28007725959804
0.68,-0.136,-3.6868276922387,-0.28638765070197
0.69,-0.138,-3.7667393879703,-0.29244936296511
0.7,-0.14,-3.8440362377334,-0.2982940572377
0.71,-0.142,-3.9190369321604,-0.30394738291055
0.72,-0.144,-4.0176837745477,-0.31147351237773
0.73,-0.146,-4.1821199056758,-0.32422671056477
0.74,-0.148,-4.3386117898137,-0.33633760632665
0.75,-0.15,-4.4820803406333,-0.34740490826574
0.76,-0.152,-4.6151876308135,-0.35763927545982
0.77,-0.154,-4.7397933751082,-0.36718831058005
0.78,-0.156,-4.8570724741006,-0.37614488999251
0.79,-0.158,-4.9686981196304,-0.38464170580746
0.8,-0.16,-5.0750845020521,-0.39271108288404
0.81,-0.162,-5.1773588765147,-0.40044280429589
0.82,-0.164,-5.2762147545579,-0.40789158574791
0.83,-0.166,-5.3720779193657,-0.41509139152836
0.84,-0.168,-5.4648704779575,-0.42203596952045
0.85,-0.17,-5.555384061613,-0.42878879506488
0.86,-0.172,-5.7468817142797,-0.44357077234797
0.87,-0.174,-5.9288455503832,-0.45758130663387
0.88,-0.176,-6.09791514941,-0.47055621956814
0.89,-0.178,-6.2559850929069,-0.48264695518407
0.9,-0.18,-6.4048402663795,-0.4939942276728
0.91,-0.182,-6.5460231865415,-0.50471976677406
0.92,-0.184,-6.6797048792457,-0.51483590895093
0.93,-0.186,-6.8071925617285,-0.52444646972482
0.94,-0.188,-6.9301812989639,-0.5336866893907
0.95,-0.19,-7.0489185457663,-0.54257614882384
0.96,-0.192,-7.1637263370619,-0.55114044176043
0.97,-0.194,-7.2746984583892,-0.55938587948078
0.98,-0.196,-7.3827696441239,-0.56738797623838
0.99,-0.198,-7.5655447580201,-0.58132434477162
1,-0.2,-7.7829107538779,-0.59800276763011
1.01,-0.196,-7.0193074220115,-0.53926763258114
1.02,-0.192,-6.3562333879372,-0.48858754083922
1.03,-0.188,-5.6944517983708,-0.43787903018028
1.04,-0.184,-5.0340910329598,-0.38715201595119
1.05,-0.18,-4.3751526848081,-0.33640758022593
1.06,-0.176,-3.7295361881103,-0.28660555947723
1.07,-0.172,-3.1698291339147,-0.2436634670345
1.08,-0.168,-2.6123216467441,-0.20078335550605
1.09,-0.164,-2.06195862366,-0.1583573330144
1.1,-0.16,-1.5879883448809,-0.12197172591691
1.11,-0.156,-1.1362363155417,-0.087270911093656
1.12,-0.152,-0.74586072019935,-0.057368754475388
1.13,-0.148,-0.39501151913185,-0.030533059039045
1.14,-0.144,-0.1367156692896,-0.010902352148847
1.15,-0.14,8.2854132524301e-13,-0.00057593292337071
1.16,-0.136,-1.2907072752846e-12,-0.00057593299226508
1.17,-0.132,-2.8032221946391e-12,-0.00057593306118826
1.18,-0.128,-4.4884708302266e-12,-0.00057593313011145
1.19,-0.124,-6.4709698171139e-12,-0.00057593319903466
1.2,-0.12,-8.0503422379236e-12,-0.00057593326795793
1.21,-0.116,-9.2079877505772e-12,-0.00057593333688114
1.22,-0.112,-1.1130739555829e-11,-0.00057593340580427
1.23,-0.108,-1.2917982566006e-11,-0.00057593347472751
1.24,-0.104,-1.4905871587761e-11,-0.00057593354365068
1.25,-0.1,-1.601619245655e-11,-0.00057593361257379
1.26,-0.096,-1.7168816029444e-11,-0.00057593368149703
1.27,-0.092,-1.8965862817486e-11,-0.00057593375042026
1.28,-0.088,-2.0759445171318e-11,-0.00057593381934351
1.29,-0.084,-2.2490742278744e-11,-0.00057593388826661
1.3,-0.08,-2.4373005783757e-11,-0.00057593395718981
1.31,-0.076,-2.6209323575579e-11,-0.00057593402611297
1.32,-0.072,-2.7990934207985e-11,-0.00057593409503612
1.33,-0.068,-2.9742997380129e-11,-0.00057593416395921
1.34,-0.064,-3.1551700523983e-11,-0.0005759342328824
1.35,-0.06,-3.3133157841854e-11,-0.00057593430180561
1.36,-0.056,-3.489280800669e-11,-0.00057593437072887
1.37,-0.052,-3.6673025444387e-11,-0.00057593443965212
1.38,-0.048,-3.8461776395132e-11,-0.00057593450857529
1.39,-0.044,-4.0236798647727e-11,-0.00057593457749847
1.4,-0.04,-4.2015584276176e-11,-0.00057593464642161
1.41,-0.036,-4.3786036594591e-11,-0.00057593471534479
1.42,-0.032,-4.5565080015824e-11,-0.00057593478426796
1.43,-0.028,-4.7362785002676e-11,-0.00057593485436448
1.44,-0.024,-4.9135391175104e-11,-0.00057593492328762
1.45,-0.02,-5.0909533941531e-11,-0.00057593499327869
1.46,-0.016,-5.2683106126236e-11,-0.00057593506220192
1.47,-0.012,-5.445812683723e-11,-0.00057593513112505
1.48,-0.0079999999999996,-5.6229291130883e-11,-0.00057593520220362
1.49,-0.0039999999999996,-5.8001154479133e-11,-0.00057593527112685
1.5,0,-5.9777073221234e-11,-0.0005759353400501
