time,disp_y_top,react_y_top,stress_yy
0,0,0,0
0.01,-0.0035,-0.0059475210667916,-0.00047274396712982
0.02,-0.007,-0.0091226462940587,-0.00072431237987572
0.03,-0.0105,-0.011766060535176,-0.00093319218709958
0.04,-0.014,-0.031953743314952,-0.0025365473534386
0.05,-0.0175,-0.055294982861236,-0.0043867416495258
0.06,-0.021,-0.071306720055267,-0.0056516454012194
0.07,-0.0245,-0.085034007669193,-0.0067326661072735
