time,disp_y_top,react_y_top,stress_yy
0,0,0,0
0.01,-0.00226,-0.0016631935227507,-0.00079566640505969
0.02,-0.00452,-0.0020406222950376,-0.00097583423098923
0.03,-0.00678,-0.0023003101007463,-0.0010994215925979
0.04,-0.00904,-0.0025242429647967,-0.0012057235346226
0.05,-0.0113,-0.002738615183896,-0.0013072929726465
0.06,-0.01356,-0.005172905677002,-0.00247197195599
0.07,-0.01582,-0.0072863489351763,-0.0034824178127806
0.08,-0.01808,-0.011025347688102,-0.0052699569304504
