time,disp_y_top,react_y_top,stress_yy
0,0,0,0
0.01,-0.002,-0.0029219960539171,-0.00023251232013946
0.02,-0.004,-0.014312350392841,-0.0011383609000298
0.03,-0.006,-0.017284301769055,-0.0013737680925409
0.04,-0.008,-0.018636922606521,-0.0014800306710011
0.05,-0.01,-0.0197297656369,-0.0015653254459631
0.06,-0.012,-0.037695819486007,-0.0029934953964046
0.07,-0.014,-0.041844481015118,-0.0033208237830418
0.08,-0.016,-0.043708504529836,-0.0034657773027169
0.09,-0.018,-0.045150917721822,-0.003576878245529
0.1,-0.02,-0.046445495838769,-0.0036759696461085
0.11,-0.022,-0.075631934525332,-0.0059972787876948
0.12,-0.024,-0.094846407474378,-0.0075249997424249
0.13,-0.026,-0.099659909265385,-0.007901989920824
0.14,-0.028,-0.10181532741201,-0.0080657874600051
0.15,-0.03,-0.10554928358542,-0.0083547481074037
0.16,-0.032,-0.13992143439466,-0.011085706868561
0.17,-0.034,-0.14736184388429,-0.011667353864285
0.18,-0.036,-0.1516047423548,-0.011992953674132
0.19,-0.038,-0.15492331782882,-0.012244257381984
0.2,-0.04,-0.1579354730209,-0.012470551831009
0.21,-0.042,-0.18768503530678,-0.014829479007
0.22,-0.044,-0.23706668673482,-0.018762302756741
0.23,-0.046,-0.24828898420962,-0.01964217989341
0.24,-0.048,-0.25296291795132,-0.019994321978468
0.25,-0.05,-0.25697722036214,-0.020292362579674
0.26,-0.052,-0.31014620147702,-0.024517500810304
0.27,-0.054,-0.3224324926484,-0.02547332332831
0.28,-0.056,-0.32939804456841,-0.026001600622997
0.29,-0.058,-0.33530305760083,-0.026444025337156
0.3,-0.06,-0.340722210003,-0.026846790189249
0.31,-0.062,-0.34918683057851,-0.027492014346567
0.32,-0.064,-0.43903319111119,-0.034651693401598
0.33,-0.066,-0.46606033268011,-0.036785471689138
0.34,-0.068,-0.47507190562201,-0.037466970943856
0.35,-0.07,-0.48073039554542,-0.037876566866408
0.36,-0.072,-0.53583839627378,-0.042244551957975
0.37,-0.074,-0.56697588163957,-0.044693230592294
0.38,-0.076,-0.57818870487848,-0.045541440690378
0.39,-0.078,-0.5869049743099,-0.04618749373644
0.4,-0.08,-0.59485791502367,-0.046771169397951
0.41,-0.082,-0.60237082479601,-0.047318554686781
0.42,-0.084,-0.63600800787316,-0.049956677810933
0.43,-0.086,-0.7377041757316,-0.058058575983228
0.44,-0.088,-0.76604635720358,-0.060277977821992
0.45,-0.09,-0.77630476144784,-0.061034179016996
0.46,-0.092,-0.79246289060763,-0.062260009557316
0.47,-0.094,-0.87463033885884,-0.068782398690915
0.48,-0.096,-0.895024685915,-0.070345042734216
0.49,-0.098,-0.90736098109586,-0.071255733855451
0.5,-0.1,-0.9181813674097,-0.072042315665078
0.51,-0.102,-0.9282152897552,-0.072764330672298
0.52,-0.104,-0.93776983174283,-0.073446689305607
0.53,-0.106,-1.0035769712999,-0.078642352539073
0.54,-0.108,-1.1098817130144,-0.087105116400374
0.55,-0.11,-1.1377520112293,-0.0892602151445
0.56,-0.112,-1.1494204927806,-0.090098548000938
0.57,-0.114,-1.182233748106,-0.092633979122196
0.58,-0.116,-1.2696811782674,-0.099561170779056
0.59,-0.118,-1.2923811681036,-0.10127875725599
0.6,-0.12,-1.3067043666976,-0.10231661403701
0.61,-0.122,-1.3191767766004,-0.10320265119096
0.62,-0.124,-1.3309019162237,-0.10402685735326
0.63,-0.126,-1.3423130089033,-0.10482415174647
0.64,-0.128,-1.4161082500405,-0.11063716696797
0.65,-0.13,-1.5384410735464,-0.12037348511143
0.66,-0.132,-1.5732856246919,-0.12306588107915
0.67,-0.134,-1.5873847962095,-0.12406760225927
0.68,-0.136,-1.6251370801905,-0.12697070127732
0.69,-0.138,-1.7253385099521,-0.1349061015545
0.7,-0.14,-1.7531637160121,-0.13700671508311
0.71,-0.142,-1.7702558711075,-0.13823262809995
0.72,-0.144,-1.7851156263149,-0.13927313108362
0.73,-0.146,-1.7991424314812,-0.1402432927618
0.74,-0.148,-1.8126795199925,-0.14117163129529
0.75,-0.15,-1.8258545182857,-0.14206901374936
0.76,-0.152,-1.9732848765277,-0.15378475409501
0.77,-0.154,-2.0625375704121,-0.16083997388375
0.78,-0.156,-2.0890767921366,-0.16282225455212
0.79,-0.158,-2.1044906915592,-0.16388829941178
0.8,-0.16,-2.1163314332138,-0.16465620129846
0.81,-0.162,-2.1877584156563,-0.17023259611627
0.82,-0.164,-2.2749084839269,-0.1770778221415
0.83,-0.166,-2.300297013098,-0.17893396091607
0.84,-0.168,-2.3182091019386,-0.18017701262904
0.85,-0.17,-2.334919500715,-0.18131860863084
0.86,-0.172,-2.3511243605044,-0.18241670440221
0.87,-0.174,-2.3669160412911,-0.18347932184771
0.88,-0.176,-2.38223868307,-0.18450228423833
0.89,-0.178,-2.3970024809205,-0.18547822425674
0.9,-0.18,-2.4110656960506,-0.18639630325809
0.91,-0.182,-2.5513211121339,-0.19748714313994
0.92,-0.184,-2.7756345565991,-0.21541459483209
0.93,-0.186,-2.9183057889141,-0.22678260811437
0.94,-0.188,-2.9627011734471,-0.23018180248602
0.95,-0.19,-2.983732880152,-0.23165407696365
0.96,-0.192,-2.9979024347992,-0.23254915015175
0.97,-0.194,-3.0094931733809,-0.23322423817053
0.98,-0.196,-3.0193680111919,-0.23375365054562
0.99,-0.198,-3.0277294651488,-0.23415678913432
1,-0.2,-3.0696905791088,-0.23729112300169
1.01,-0.196,-1.993656104283,-0.15356921877921
1.02,-0.192,-1.035949935914,-0.079315324054993
1.03,-0.188,-0.29344586684687,-0.022399168350928
1.04,-0.184,4.5989336149114e-13,-0.00012674586052526
1.05,-0.18,-1.2591594249557e-12,-0.00012674587714226
1.06,-0.176,-2.1149812069289e-12,-0.00012674589441465
1.07,-0.172,2.8525445978971e-15,-0.00012674591252901
1.08,-0.168,5.261101025328e-13,-0.00012674593070824
1.09,-0.164,8.1522959208379e-13,-0.00012674594861751
1.1,-0.16,2.6637134751465e-13,-0.00012674596901751
1.11,-0.156,-1.0138230812596e-12,-0.00012674598620721
1.12,-0.152,6.4340700769874e-13,-0.0001267460075899
1.13,-0.148,7.6124058235216e-13,-0.00012674602756899
1.14,-0.144,4.2221457816387e-13,-0.00012674604659704
1.15,-0.14,5.4303170027196e-13,-0.0001267460645087
1.16,-0.136,-9.6621675616487e-13,-0.00012674608564867
1.17,-0.132,-1.3087085914273e-12,-0.00012674610448142
1.18,-0.128,-1.4787133036648e-12,-0.00012674612403239
1.19,-0.124,-2.6221515946334e-12,-0.00012674614276069
1.2,-0.12,-2.9772837009796e-12,-0.00012674616412544
1.21,-0.116,-3.0568206737796e-12,-0.00012674618337063
1.22,-0.112,-2.7627003151547e-12,-0.00012674620454279
1.23,-0.108,-2.3819743632359e-12,-0.00012674622321407
1.24,-0.104,-1.9428772144818e-12,-0.00012674624414702
1.25,-0.1,-2.3635348031518e-12,-0.0001267462641312
1.26,-0.096,-2.1729121292731e-12,-0.00012674628324837
1.27,-0.092,-2.7260477501478e-12,-0.00012674630043413
1.28,-0.088,-3.3534026446158e-12,-0.00012674632538688
1.29,-0.084,-2.9806336460881e-12,-0.00012674634367616
1.3,-0.08,-3.4449856555e-12,-0.00012674636173097
1.31,-0.076,-3.5081612187652e-12,-0.00012674638135242
1.32,-0.072,-4.6468833366921e-12,-0.00012674640132136
1.33,-0.068,-5.1503740893952e-12,-0.0001267464204128
1.34,-0.064,-5.4537196266796e-12,-0.00012674644312949
1.35,-0.06,-5.0213557627341e-12,-0.00012674646146723
1.36,-0.056,-4.9465229614719e-12,-0.00012674648366216
1.37,-0.052,-5.2647268299033e-12,-0.00012674650426052
1.38,-0.048,-5.4161547496961e-12,-0.00012674652374122
1.39,-0.044,-5.0910846856575e-12,-0.0001267465414955
1.4,-0.04,-4.6395112059762e-12,-0.00012674656337858
1.41,-0.036,-4.7469316244973e-12,-0.00012674658177662
1.42,-0.032,-4.700566893955e-12,-0.00012674660048415
1.43,-0.028,-5.1018739739698e-12,-0.00012674661944141
1.44,-0.024,-5.1523223603592e-12,-0.00012674664370956
1.45,-0.02,-5.2203864364248e-12,-0.00012674666266108
1.46,-0.016,-5.3544946879333e-12,-0.00012674668438107
1.47,-0.012,-5.4693822980898e-12,-0.00012674670156035
1.48,-0.0079999999999996,-5.5975987677765e-12,-0.00012674672132758
1.49,-0.0039999999999996,-5.7343326505326e-12,-0.00012674674120835
1.5,0,-6.147149388194e-12,-0.00012674675913056
