time,disp_y_top,react_y_top,stress_yy
0,0,0,0
0.01,-0.002,-0.0018531624089707,-0.00014746056366941
0.02,-0.004,-0.01799539367692,-0.0014311896427407
0.03,-0.006,-0.029693867133287,-0.002360448353481
0.04,-0.008,-0.036761932097319,-0.0029209059331375
0.05,-0.01,-0.043616831147843,-0.0034638235929761
0.06,-0.012,-0.049473576287961,-0.0039268144087728
0.07,-0.014,-0.065333610835586,-0.0051846377506787
0.08,-0.016,-0.084712842911254,-0.0067208747833405
0.09,-0.018,-0.10040045320935,-0.0079620351893056
0.1,-0.02,-0.1115689094865,-0.0088428147022602
0.11,-0.022,-0.11998287101746,-0.0095037910847136
0.12,-0.024,-0.12777252838017,-0.010114196986896
0.13,-0.026,-0.13492468329763,-0.010673003332616
0.14,-0.028,-0.1552485153939,-0.012279343562302
0.15,-0.03,-0.1902217419037,-0.015050129683817
0.16,-0.032,-0.22169907500919,-0.017540429448516
0.17,-0.034,-0.24933196401643,-0.019722658108022
0.18,-0.036,-0.26948763531972,-0.021308763823618
0.19,-0.038,-0.28417438685476,-0.022458407290776
0.2,-0.04,-0.29671596152946,-0.023435700738354
0.21,-0.042,-0.33168853190212,-0.026194373099196
0.22,-0.044,-0.36600546514783,-0.028898345358711
0.23,-0.046,-0.39613091956132,-0.03126644271123
0.24,-0.048,-0.41963962354706,-0.033106197490362
0.25,-0.05,-0.4380513893326,-0.034539155060799
0.26,-0.052,-0.45454602346367,-0.035817751680867
0.27,-0.054,-0.47631273412491,-0.037514120848769
0.28,-0.056,-0.53245122864658,-0.04194406971068
0.29,-0.058,-0.58361455211975,-0.045975449325256
0.3,-0.06,-0.62978859309881,-0.049606714724431
0.31,-0.062,-0.66792489820984,-0.052595999578869
0.32,-0.064,-0.69714876064086,-0.054874215533725
0.33,-0.066,-0.7212737014479,-0.05674430257433
0.34,-0.068,-0.7596371910888,-0.059742613426899
0.35,-0.07,-0.81271199094051,-0.063906391333403
0.36,-0.072,-0.8613141814597,-0.067710601575208
0.37,-0.074,-0.9015335113814,-0.070844958065545
0.38,-0.076,-0.93356644824157,-0.07332594802234
0.39,-0.078,-0.96048235570915,-0.075397748876143
0.4,-0.08,-0.98495083057672,-0.077272132823443
0.41,-0.082,-1.0557118650412,-0.082826567175528
0.42,-0.084,-1.1271977507608,-0.088434794175327
0.43,-0.086,-1.1932852013728,-0.093609420397084
0.44,-0.088,-1.2515872885915,-0.098160711535362
0.45,-0.09,-1.2972108106756,-0.10170121322267
0.46,-0.092,-1.334089210447,-0.10454312936516
0.47,-0.094,-1.375174554459,-0.10771462868094
0.48,-0.096,-1.4467522089838,-0.11330398726528
0.49,-0.098,-1.5122437314718,-0.11840484190449
0.5,-0.1,-1.5694196108751,-0.12284020093278
0.51,-0.102,-1.6155695169581,-0.1263959635155
0.52,-0.104,-1.6540866885026,-0.12934199989009
0.53,-0.106,-1.6895247864051,-0.13203896806885
0.54,-0.108,-1.7646654987667,-0.13788890333573
0.55,-0.11,-1.8559987026599,-0.14502229672533
0.56,-0.112,-1.9414523485461,-0.15168259446442
0.57,-0.114,-2.0196124087021,-0.15775750420041
0.58,-0.116,-2.0822370544401,-0.16259506476957
0.59,-0.118,-2.1323143625002,-0.16643230757834
0.6,-0.12,-2.1772292314271,-0.16985401014531
0.61,-0.122,-2.265129043148,-0.17668310840104
0.62,-0.124,-2.3481395091399,-0.18311770290461
0.63,-0.126,-2.4229275104231,-0.18889302207186
0.64,-0.128,-2.4840150225906,-0.19357506589583
0.65,-0.13,-2.5345873039389,-0.19741819298255
0.66,-0.132,-2.5813391374678,-0.20095240110206
0.67,-0.134,-2.6626457072339,-0.20722802935204
0.68,-0.136,-2.7733132460412,-0.21583356733407
0.69,-0.138,-2.8770831206831,-0.22388453001536
0.7,-0.14,-2.9728285385089,-0.23129130189932
0.71,-0.142,-3.0534229439771,-0.23748943391161
0.72,-0.144,-3.1172650989425,-0.24235299462566
0.73,-0.146,-3.1748347110604,-0.24671172742134
0.74,-0.148,-3.271691197993,-0.25418146226558
0.75,-0.15,-3.3718462606632,-0.26190624893997
0.76,-0.152,-3.4640893396004,-0.26899553081995
0.77,-0.154,-3.5410336193536,-0.27486418805454
0.78,-0.156,-3.6045160365382,-0.27966023288825
0.79,-0.158,-3.6628158912079,-0.28403792604337
0.8,-0.16,-3.7431882123027,-0.29016312419706
0.81,-0.162,-3.872300180399,-0.30015644177833
0.82,-0.164,-3.9945979691447,-0.30960078765597
0.83,-0.166,-4.1088094339808,-0.31839530679138
0.84,-0.168,-4.2099515904474,-0.3261447081201
0.85,-0.17,-4.2887226447459,-0.33211471308635
0.86,-0.172,-4.3598638676196,-0.33747080657189
0.87,-0.174,-4.4580604336215,-0.34496517936994
0.88,-0.176,-4.5763801075523,-0.35404935777438
0.89,-0.178,-4.6861061585379,-0.36244324648519
0.9,-0.18,-4.7794710893225,-0.36953121020039
0.91,-0.182,-4.8574900116458,-0.37539443535235
0.92,-0.184,-4.9279282855583,-0.38064886746931
0.93,-0.186,-5.0057123519639,-0.38647912664782
0.94,-0.188,-5.1539830883427,-0.3979035735662
0.95,-0.19,-5.2943930446713,-0.4086944465248
0.96,-0.192,-5.4253658118901,-0.41872641843915
0.97,-0.194,-5.5449615149374,-0.42784700457777
0.98,-0.196,-5.6391753785629,-0.43494990994844
0.99,-0.198,-5.7225670706329,-0.44118486949014
1,-0.2,-5.8184242069923,-0.44839862516862
1.01,-0.196,-5.3011711697976,-0.40876706408245
1.02,-0.192,-4.790703842653,-0.36958281169932
1.03,-0.188,-4.2813398212607,-0.33038291981577
1.04,-0.184,-3.7772382189626,-0.29150092333886
1.05,-0.18,-3.3051043107682,-0.25513516287975
1.06,-0.176,-2.8468527148255,-0.21980460541146
1.07,-0.172,-2.4061256497104,-0.18580711882446
1.08,-0.168,-1.9777436542381,-0.15272098696916
1.09,-0.164,-1.5764241729209,-0.12174503969745
1.1,-0.16,-1.1981702135633,-0.092552667375173
1.11,-0.156,-0.84198149156522,-0.065064491556582
1.12,-0.152,-0.5301310304993,-0.041064762518089
1.13,-0.148,-0.26397714868725,-0.020613819497446
1.14,-0.144,-0.05700434845452,-0.0047818777771832
1.15,-0.14,2.2772233326256e-13,-0.00044913051245099
1.16,-0.136,-4.7371057670234e-13,-0.00044913051463432
1.17,-0.132,-2.4904110340995e-12,-0.00044913051638362
1.18,-0.128,-3.2212490244417e-12,-0.00044913051813303
1.19,-0.124,-5.153636501166e-12,-0.00044913052037934
1.2,-0.12,-6.7358003935922e-12,-0.0004491305221289
1.21,-0.116,-8.5828930526735e-12,-0.0004491305238779
1.22,-0.112,-9.7504020501221e-12,-0.00044913052612447
1.23,-0.108,-1.1728996575959e-11,-0.00044913052787397
1.24,-0.104,-1.260920343222e-11,-0.00044913052962274
1.25,-0.1,-1.4498405886193e-11,-0.00044913053186959
1.26,-0.096,-1.7014253291323e-11,-0.00044913053361828
1.27,-0.092,-1.8337582482031e-11,-0.00044913053536767
1.28,-0.088,-1.9881324396269e-11,-0.00044913053761403
1.29,-0.084,-2.0938223796624e-11,-0.00044913053936325
1.3,-0.08,-2.1586559034286e-11,-0.00044913054111244
1.31,-0.076,-2.4471843418593e-11,-0.00044913054335928
1.32,-0.072,-2.6167064231938e-11,-0.00044913054510846
1.33,-0.068,-2.7387107378716e-11,-0.0004491305468579
1.34,-0.064,-2.8323918529661e-11,-0.00044913054910447
1.35,-0.06,-3.0428895504671e-11,-0.00044913055085391
1.36,-0.056,-3.1515247781354e-11,-0.00044913055260282
1.37,-0.052,-3.2362010587355e-11,-0.00044913055484953
1.38,-0.048,-3.4494473368999e-11,-0.00044913055659878
1.39,-0.044,-3.5866832387196e-11,-0.00044913055876128
1.4,-0.04,-3.7331054409583e-11,-0.00044913056100779
1.41,-0.036,-3.8649050416157e-11,-0.0004491305627572
1.42,-0.032,-4.0231496622971e-11,-0.00044913056450647
1.43,-0.028,-4.1744487347413e-11,-0.00044913056675315
1.44,-0.024,-4.2932922394621e-11,-0.00044913056850211
1.45,-0.02,-4.4341434941059e-11,-0.00044913057025158
1.46,-0.016,-4.5932278624888e-11,-0.00044913057249827
1.47,-0.012,-4.7773694545813e-11,-0.00044913057424726
1.48,-0.0079999999999996,-4.9172757200939e-11,-0.00044913057599646
1.49,-0.0039999999999996,-5.1060363164672e-11,-0.00044913057824327
1.5,0,-5.3120542158677e-11,-0.00044913057999265
