time,disp_y_top,react_y_top,stress_yy
0,0,0,0
0.01,-0.0015,-4.5666855807452e-08,-4.8713131482756e-21
0.02,-0.003,-0.0055716865520432,-0.00044322276231836
0.03,-0.0045,-0.011996461279291,-0.00095390039449683
0.04,-0.006,-0.015640449026613,-0.0012431984996381
0.05,-0.0075,-0.018451010661892,-0.0014660480959431
0.06,-0.009,-0.021210354159941,-0.001684643871188
0.07,-0.0105,-0.023652045801401,-0.0018778206338738
0.08,-0.012,-0.025770547629182,-0.0020451090293343
0.09,-0.0135,-0.032139034476422,-0.0025501899936752
0.1,-0.015,-0.040255449436568,-0.0031938302487225
0.11,-0.0165,-0.047519621001252,-0.0037691740769398
0.12,-0.018,-0.052652517516922,-0.0041747147352581
0.13,-0.0195,-0.056809753934879,-0.0045023734119416
0.14,-0.021,-0.060076681256197,-0.0047590139960001
0.15,-0.0225,-0.063142298138737,-0.0049993687289093
0.16,-0.024,-0.066022671003895,-0.005224723658089
0.17,-0.0255,-0.068676587541794,-0.0054318108593978
0.18,-0.027,-0.07318465718094,-0.0057862518180462
0.19,-0.0285,-0.08809105135658,-0.0069679713068498
0.2,-0.03,-0.10185935248206,-0.0080584644416397
0.21,-0.0315,-0.11432535950534,-0.0090446084149553
0.22,-0.033,-0.1255461512115,-0.0099309819764736
0.23,-0.0345,-0.13397460857766,-0.010594871025275
0.24,-0.036,-0.14007495610609,-0.011073193866135
0.25,-0.0375,-0.14530024571747,-0.011481396900659
0.26,-0.039,-0.14999141625604,-0.0118466141315
0.27,-0.0405,-0.16058169638957,-0.012680255238279
0.28,-0.042,-0.17529124050083,-0.013840654755813
0.29,-0.0435,-0.18886393074024,-0.014909851281165
0.3,-0.045,-0.20076094095635,-0.01584504629955
0.31,-0.0465,-0.21019464364608,-0.016583720413897
0.32,-0.048,-0.21770842421303,-0.017169325519512
0.33,-0.0495,-0.22438744200035,-0.017688016843839
0.34,-0.051,-0.23051648125563,-0.018162420690084
0.35,-0.0525,-0.23618276815542,-0.018599446815417
0.36,-0.054,-0.25312051239398,-0.019932953039035
0.37,-0.0555,-0.27515708396796,-0.021671754176919
0.38,-0.057,-0.29567620467471,-0.023288934614895
0.39,-0.0585,-0.31442296698345,-0.024764214122012
0.4,-0.06,-0.33084821783426,-0.026053936096709
0.41,-0.0615,-0.34415196318642,-0.027094704070158
0.42,-0.063,-0.35449958541771,-0.02789975658664
0.43,-0.0645,-0.36367371611942,-0.028610614112461
0.44,-0.066,-0.37204062613518,-0.029256394346272
0.45,-0.0675,-0.39195303655534,-0.030818685431146
0.46,-0.069,-0.41304664313755,-0.032473743331951
0.47,-0.0705,-0.4326710732005,-0.034010786132615
0.48,-0.072,-0.44979692093118,-0.035348090776282
0.49,-0.0735,-0.46381466352753,-0.036437421358137
0.5,-0.075,-0.47492217065631,-0.037295003905707
0.51,-0.0765,-0.48505042353402,-0.038073891303487
0.52,-0.078,-0.49447461706117,-0.038795941151841
0.53,-0.0795,-0.50487308923838,-0.039594612025802
0.54,-0.081,-0.53529673177129,-0.041985850895493
0.55,-0.0825,-0.56423566668176,-0.044257791726133
0.56,-0.084,-0.59147818230637,-0.046393517239302
0.57,-0.0855,-0.61653829375944,-0.048354443783346
0.58,-0.087,-0.63823901847623,-0.05004712258298
0.59,-0.0885,-0.65585189162242,-0.051413964462626
0.6,-0.09,-0.67020516388842,-0.052520727030573
0.61,-0.0915,-0.68332492226896,-0.053528152891939
0.62,-0.093,-0.69872257031358,-0.054715269206448
0.63,-0.0945,-0.72737795688999,-0.056954455519389
0.64,-0.096,-0.75411992744225,-0.059040165103954
0.65,-0.0975,-0.77900508636636,-0.06097673415621
0.66,-0.099,-0.79993161163296,-0.062597572169301
0.67,-0.1005,-0.81735094876543,-0.063938768316457
0.68,-0.102,-0.83219466468097,-0.065074354298487
0.69,-0.1035,-0.84602216044615,-0.066127864596806
0.7,-0.105,-0.85903050081836,-0.067114995083223
0.71,-0.1065,-0.88445499729302,-0.069088404207988
0.72,-0.108,-0.92159594238242,-0.071992702532975
0.73,-0.1095,-0.95704583823474,-0.074760919768466
0.74,-0.111,-0.99035180493815,-0.077357075177772
0.75,-0.1125,-1.0209855881716,-0.07973932442366
0.76,-0.114,-1.0470881128159,-0.081760376542115
0.77,-0.1155,-1.0673488252925,-0.083316634362034
0.78,-0.117,-1.0855455022157,-0.084707341183071
0.79,-0.1185,-1.1023144527542,-0.085982928078362
0.8,-0.12,-1.1306021973054,-0.08817151730492
0.81,-0.1215,-1.1650673872898,-0.090849071512165
0.82,-0.123,-1.1972707691506,-0.093345041112832
0.83,-0.1245,-1.2265305606271,-0.095605420137081
0.84,-0.126,-1.2509134975579,-0.097476993607844
0.85,-0.1275,-1.2711131938028,-0.099015425881927
0.86,-0.129,-1.2897349207122,-0.1004269192105
0.87,-0.1305,-1.3072442759197,-0.10174842159786
0.88,-0.132,-1.3255978876408,-0.10313559205533
0.89,-0.1335,-1.3708190342544,-0.10665811764041
0.9,-0.135,-1.4140472519982,-0.11002037920779
0.91,-0.1365,-1.4550898476609,-0.113207050057
0.92,-0.138,-1.4934176302379,-0.11617608293511
0.93,-0.1395,-1.5280778925389,-0.11885174393472
0.94,-0.141,-1.5561199772336,-0.12100070215832
0.95,-0.1425,-1.57996708815,-0.12281495411747
0.96,-0.144,-1.60184737329,-0.12447103420706
0.97,-0.1455,-1.6258733064628,-0.12629529141299
0.98,-0.147,-1.6680720599233,-0.12956030756852
0.99,-0.1485,-1.7076279560534,-0.13261353904662
1,-0.15,-1.7446836517552,-0.13546599622642
1.01,-0.147,-1.5903784112733,-0.12353901562259
1.02,-0.144,-1.4363844459047,-0.11161228598965
1.03,-0.141,-1.2858988543787,-0.099945790857685
1.04,-0.138,-1.1409596179913,-0.088706825793304
1.05,-0.135,-0.99631664868052,-0.077468315290283
1.06,-0.132,-0.85296933865699,-0.066310305439648
1.07,-0.129,-0.72079877727948,-0.056039015517531
1.08,-0.126,-0.59384260728192,-0.046169905499062
1.09,-0.123,-0.47477965309903,-0.036919034959716
1.1,-0.12,-0.35859748699495,-0.027880381112434
1.11,-0.117,-0.25481962080499,-0.019821978319866
1.12,-0.114,-0.1606125812117,-0.012513075607021
1.13,-0.111,-0.079153296252853,-0.0062021950544625
1.14,-0.108,-0.015000540539677,-0.001250976548616
1.15,-0.105,2.7895254821466e-13,-9.9565817754749e-05
1.16,-0.102,5.1569177621728e-13,-9.9565742867167e-05
1.17,-0.099,3.9016737155168e-13,-9.9565668129229e-05
1.18,-0.096,1.5656336627663e-12,-9.956559339204e-05
1.19,-0.093,2.2130879384385e-12,-9.9565518655587e-05
1.2,-0.09,2.4879885933239e-12,-9.9565443919855e-05
1.21,-0.087,3.2929726391757e-12,-9.9565369184866e-05
1.22,-0.084,3.1223957383417e-12,-9.9565294450618e-05
1.23,-0.081,3.7981162132774e-12,-9.9565219717127e-05
1.24,-0.078,7.8681066597718e-13,-9.9567761419373e-05
1.25,-0.075,-1.0204895421567e-12,-9.9565782564599e-05
1.26,-0.072,-3.3068520022795e-12,-9.956413070873e-05
1.27,-0.069,-5.9785174546838e-12,-9.9562958903622e-05
1.28,-0.066,-7.5851491104484e-12,-9.9561962952418e-05
1.29,-0.063,-9.0646519148886e-12,-9.9561018301868e-05
1.3,-0.06,-8.5571724489909e-13,-9.9565714964565e-05
1.31,-0.057,8.1559543984651e-12,-9.9570623008849e-05
1.32,-0.054,-2.034621070517e-13,-9.9565893805527e-05
1.33,-0.051,-8.6888188629245e-12,-9.9561245303185e-05
1.34,-0.048,-2.6204687519784e-13,-9.9565621873643e-05
1.35,-0.045,7.901067739707e-12,-9.9570130776037e-05
1.36,-0.042,-1.2286647356357e-13,-9.9566025532513e-05
1.37,-0.039,-7.8671059682717e-12,-9.9561949962746e-05
1.38,-0.036,1.3515014654785e-12,-9.9570483097551e-05
1.39,-0.033,-1.3759007391622e-12,-9.9565938059779e-05
1.4,-0.03,-4.0467869673124e-12,-9.9562031547375e-05
1.41,-0.027,2.1464894853079e-13,-9.9565599483822e-05
1.42,-0.024,5.0878451243739e-12,-9.9569167421403e-05
1.43,-0.021,-2.1170949770929e-12,-9.9565904926311e-05
1.44,-0.018,-9.3105754926303e-12,-9.9562683979469e-05
1.45,-0.015,-4.9763826990127e-13,-9.9565598691287e-05
1.46,-0.012,8.2058761620778e-12,-9.9568651924467e-05
1.47,-0.0089999999999997,4.550819184186e-13,-9.9566189568432e-05
1.48,-0.0059999999999997,-7.5395157686363e-12,-9.9563804459426e-05
1.49,-0.0029999999999997,-4.7394604013557e-13,-9.9565595953012e-05
1.5,0,6.5903420180104e-12,-9.956781346249e-05
