time,disp_y_top,react_y_top,stress_yy
0,0,0,0
0.01,-0.003,-0.003906513820332,-0.00031075555432473
0.02,-0.006,-0.0095499551203888,-0.00075908803933527
0.03,-0.009,-0.012868443725255,-0.0010220420221421
0.04,-0.012,-0.015255808478367,-0.0012104863243644
0.05,-0.015,-0.024984749009075,-0.0019821765599508
0.06,-0.018,-0.031416049824293,-0.0024906134232067
0.07,-0.021,-0.035160062179658,-0.0027847044943928
0.08,-0.024,-0.038102220598599,-0.0030144150429675
0.09,-0.027,-0.047305801090321,-0.0037419990989929
0.1,-0.03,-0.064806711453343,-0.0051288851961569
0.11,-0.033,-0.076185270319295,-0.0060271293426931
0.12,-0.036,-0.082045687386922,-0.0064852392567874
0.13,-0.039,-0.089854287240627,-0.0070970591897378
0.14,-0.042,-0.10828445042427,-0.0085519247419221
0.15,-0.045,-0.12029639959846,-0.0094945364463442
0.16,-0.048,-0.12752193119868,-0.010055234681171
0.17,-0.051,-0.13338154152119,-0.010506070007619
0.18,-0.054,-0.16255204097119,-0.012811889973017
0.19,-0.057,-0.18520007442519,-0.014596529340745
0.2,-0.06,-0.19938772522908,-0.015705857473546
0.21,-0.063,-0.2082898765605,-0.016392669216321
0.22,-0.066,-0.22969904270959,-0.018071699221264
0.23,-0.069,-0.25314754522162,-0.019910485126048
0.24,-0.072,-0.26717595554024,-0.020997951253426
0.25,-0.075,-0.27732789435852,-0.021775074444159
0.26,-0.078,-0.29845965406098,-0.023424281056179
0.27,-0.081,-0.33516484654454,-0.026311663140247
0.28,-0.084,-0.36339617851962,-0.028521645459257
0.29,-0.087,-0.38076134477936,-0.029864569648671
0.3,-0.09,-0.39498906558352,-0.030954872901948
0.31,-0.093,-0.43007704128579,-0.033701208071089
0.32,-0.096,-0.4564250543726,-0.035748675084306
0.33,-0.099,-0.47256669260751,-0.0369820955339
0.34,-0.102,-0.48596910627344,-0.03799454782619
0.35,-0.105,-0.53086291318908,-0.041512052842146
0.36,-0.108,-0.57241256880552,-0.044760732696453
0.37,-0.111,-0.60225002387694,-0.047073718682318
0.38,-0.114,-0.620496792453,-0.048461259898635
0.39,-0.117,-0.64959321244971,-0.050707227826778
0.4,-0.12,-0.6900290070965,-0.053851542799012
0.41,-0.123,-0.71748019747998,-0.055959595696761
0.42,-0.126,-0.73653403375938,-0.057396418840321
0.43,-0.129,-0.76643303809127,-0.059692841851109
0.44,-0.132,-0.8217353200002,-0.06400952507569
0.45,-0.135,-0.867659223213,-0.067575147281754
0.46,-0.138,-0.89776038200087,-0.06987795482848
0.47,-0.141,-0.9188502896288,-0.071459407446915
0.48,-0.144,-0.96923327364897,-0.075366427480932
0.49,-0.147,-1.0108257094008,-0.078569079717736
0.5,-0.15,-1.0379138645928,-0.080614325352936
0.51,-0.153,-1.0598741675309,-0.082246844825042
0.52,-0.156,-1.1170997491951,-0.086683079994506
0.53,-0.159,-1.1763353864518,-0.091276365217833
0.54,-0.162,-1.222619226088,-0.094833457214849
0.55,-0.165,-1.2515004828482,-0.097001720318142
0.56,-0.168,-1.2875480917825,-0.099733826238131
0.57,-0.171,-1.3434434909453,-0.10403975210377
0.58,-0.174,-1.3852686930435,-0.10722064540741
0.59,-0.177,-1.4139306815646,-0.10935065749806
0.6,-0.18,-1.447845237581,-0.11189321813217
0.61,-0.183,-1.5199563886683,-0.11747465424419
0.62,-0.186,-1.5826584591083,-0.12230093317118
0.63,-0.189,-1.6279012040454,-0.12573256036451
0.64,-0.192,-1.6589728421588,-0.12803177541955
0.65,-0.195,-1.7099357769063,-0.13190586931892
0.66,-0.198,-1.7697320949208,-0.13647744776535
0.67,-0.201,-1.8182702817142,-0.14014580659841
0.68,-0.204,-1.8525142863954,-0.14266843874407
0.69,-0.207,-1.8803736929751,-0.14467708574129
0.7,-0.21,-1.9053549076562,-0.14645073023923
0.705,-0.2115,-1.9175653611085,-0.14731348480055
0.715,-0.2145,-1.9875927882937,-0.15267135562657
0.725,-0.2175,-2.0848141054128,-0.1601969328782
0.735,-0.2205,-2.1736574096684,-0.16704906004153
0.745,-0.2235,-2.2535554469799,-0.17318152174418
0.755,-0.2265,-2.3231503317625,-0.17848571863462
0.765,-0.2295,-2.374802150049,-0.18235447004551
0.775,-0.2325,-2.4123141306568,-0.18509159608505
0.785,-0.2355,-2.4451232221374,-0.18744722089478
0.795,-0.2385,-2.4735127261099,-0.18944375066433
0.8,-0.24,-2.4866160640471,-0.19035278423551
0.805,-0.2415,-2.5131837468982,-0.19233273284436
0.815,-0.2445,-2.5937142276468,-0.1984695054332
0.825,-0.2475,-2.6656788521245,-0.20391787311225
0.835,-0.2505,-2.7279126368876,-0.20858483978037
0.845,-0.2535,-2.7708663008034,-0.21170936635929
0.855,-0.2565,-2.8057706191274,-0.21418671328818
0.865,-0.2595,-2.8362665284151,-0.21630443114942
0.875,-0.2625,-2.8650599121519,-0.21827993580548
0.885,-0.2655,-2.9600459855483,-0.22552664157382
0.895,-0.2685,-3.0707817289781,-0.23402539651135
0.905,-0.2715,-3.171866862728,-0.24174842350871
0.915,-0.2745,-3.2634414740254,-0.24870808280339
0.925,-0.2775,-3.3429962575627,-0.25470005726984
0.935,-0.2805,-3.4076735819062,-0.25949874724909
0.945,-0.2835,-3.4563698215536,-0.26302183766894
0.955,-0.2865,-3.4993229146529,-0.26607907004931
0.965,-0.2895,-3.5359975341427,-0.26862576054099
0.975,-0.2925,-3.5680485982069,-0.27079473187763
0.985,-0.2955,-3.5972773164248,-0.27273176291441
0.99,-0.297,-3.628227413793,-0.27499852126234
1,-0.3,-3.7154119607854,-0.28153943047063
1.01,-0.294,-3.2337749998076,-0.24513555281729
1.02,-0.288,-2.7822101374101,-0.21106598947832
1.03,-0.282,-2.3321876411845,-0.17697239968197
1.04,-0.276,-1.884602184682,-0.14292687668464
1.05,-0.27,-1.4556611157,-0.11026150442232
1.06,-0.264,-1.0701138097754,-0.081044217090155
1.07,-0.258,-0.71368162991953,-0.054069675414788
1.08,-0.252,-0.39244143930092,-0.029811868641867
1.09,-0.246,-0.12616332181955,-0.0098265566437281
1.1,-0.24,1.3281823163243e-13,-0.00041460264024426
1.11,-0.234,-1.2706140435661e-12,-0.00041460337088738
1.12,-0.228,-3.705599690876e-12,-0.0004146041031493
1.13,-0.222,-5.8248842320174e-12,-0.0004146048350215
1.14,-0.216,-8.168173623235e-12,-0.00041460556728925
1.15,-0.21,-1.0816299717004e-11,-0.00041460629904889
1.16,-0.204,-1.3112312836926e-11,-0.00041460703181755
1.17,-0.198,-1.5336713903659e-11,-0.00041460776317881
1.18,-0.192,-1.7539929162522e-11,-0.00041460849544727
1.19,-0.186,-1.9221793275236e-11,-0.0004146092277071
1.2,-0.18,5.5176711569336e-13,-0.00041460334134024
1.21,-0.174,1.3009927137245e-12,-0.00041460292058689
1.22,-0.168,2.5563229074693e-12,-0.00041460273216458
1.23,-0.162,2.2840544222905e-12,-0.00041460275390281
1.24,-0.156,3.1897048182602e-12,-0.00041460279635856
1.25,-0.15,4.9152787806866e-12,-0.0004146028431362
1.26,-0.144,4.8111004809593e-12,-0.00041460288991406
1.27,-0.138,5.2039422200226e-12,-0.00041460293716386
1.28,-0.132,7.3310419558093e-12,-0.00041460298419726
1.29,-0.126,8.4175505460971e-12,-0.00041460303097613
1.3,-0.12,8.9405585701374e-12,-0.00041460307886579
1.31,-0.114,1.0156360425325e-11,-0.00041460312623429
1.32,-0.108,1.0213397956318e-11,-0.00041460317380047
1.33,-0.102,-4.968665251599e-13,-0.00041460248244034
1.34,-0.095999999999999,-1.1590659854821e-11,-0.00041460329283364
1.35,-0.089999999999999,2.6337410126082e-13,-0.00041460711768583
1.36,-0.083999999999999,-3.3142867147012e-12,-0.00041460434186792
1.37,-0.077999999999999,-7.703289245066e-12,-0.00041460467139647
1.38,-0.071999999999999,-8.4124053666435e-13,-0.00041460264328189
1.39,-0.065999999999999,6.3804393559986e-12,-0.00041460116200819
1.4,-0.059999999999999,7.4690837020905e-13,-0.00041460233577669
1.41,-0.053999999999999,-4.698393605671e-12,-0.00041460367565992
1.42,-0.047999999999999,9.3799916266945e-13,-0.00041460550920254
1.43,-0.041999999999999,-3.2329713686204e-13,-0.00041460639348859
1.44,-0.035999999999999,7.8595035780019e-13,-0.00041460646606637
1.45,-0.029999999999999,-6.2689847441722e-13,-0.00041460631979459
1.46,-0.023999999999999,1.2785869656194e-12,-0.00041460763569554
1.47,-0.017999999999999,-1.7787951767342e-12,-0.00041460669161399
1.48,-0.011999999999999,8.4859389392727e-13,-0.0004146075674797
1.49,-0.0059999999999993,2.5751133727894e-13,-0.00041460685522242
1.5,0,-5.6452634741936e-13,-0.00041460758482111
