time,disp_y_top,react_y_top,stress_yy
0,0,0,0
0.01,-0.00226,-0.0037096679818599,-0.0018501479945897
0.02,-0.00452,-0.0042876316264071,-0.0021390039444059
0.03,-0.00678,-0.0048326978929777,-0.0024092602523745
0.04,-0.00904,-0.0053550860694077,-0.0026678413174216
0.05,-0.0113,-0.0071924929743461,-0.0035836681179467
0.06,-0.01356,-0.011051875500358,-0.0055093201203129
0.07,-0.01582,-0.014678427465258,-0.0073165929662888
0.08,-0.01808,-0.019618608053939,-0.0097777613129355
0.09,-0.02034,-0.023668760461759,-0.011791612807963
0.1,-0.0226,-0.026988279959364,-0.013438046987024
0.11,-0.02486,-0.029629819943591,-0.014743783581784
0.12,-0.02712,-0.031704754432288,-0.015764735236151
0.13,-0.02938,-0.038180986355475,-0.018984831278523
0.14,-0.03164,-0.046973803061344,-0.023359331372031
0.15,-0.0339,-0.055089202364561,-0.027390696273582
0.16,-0.03616,-0.062018649183754,-0.030825539889143
0.17,-0.03842,-0.067873574501527,-0.033719520730225
0.18,-0.04068,-0.072608711641424,-0.036050451611924
0.19,-0.04294,-0.076657937241579,-0.038035214370627
0.2,-0.0452,-0.08400088482831,-0.041664508127319
0.21,-0.04746,-0.094402815312777,-0.0468189257538
0.22,-0.04972,-0.10394312506957,-0.051537407448545
0.23,-0.05198,-0.11221893037652,-0.055618911673118
0.24,-0.05424,-0.11940512863069,-0.059150924447691
0.25,-0.0565,-0.126795384689,-0.062780238871302
0.26,-0.05876,-0.13339607616932,-0.066010684385198
0.27,-0.06102,-0.14428596108486,-0.071382952712471
0.28,-0.06328,-0.15630591397868,-0.077314379614801
0.29,-0.06554,-0.16770427057997,-0.082928956214013
0.3,-0.0678,-0.18013326476188,-0.089051715678229
0.31,-0.07006,-0.19082272432554,-0.094298749785515
0.32,-0.07232,-0.20033156398045,-0.098949981112513
0.33,-0.07458,-0.20974062158461,-0.1035461527393
0.34,-0.07684,-0.22268969384128,-0.10990707783117
0.35,-0.0791,-0.23613633637647,-0.11650987333139
0.36,-0.08136,-0.25089931120416,-0.12376294415161
0.37,-0.08362,-0.26402253968333,-0.13018856340914
0.38,-0.08588,-0.27520674397535,-0.13563800484625
0.39,-0.08814,-0.28508401728657,-0.14042703240015
0.4,-0.0904,-0.29805541140709,-0.14675747703128
0.41,-0.09266,-0.31435933622367,-0.15474752012041
0.42,-0.09492,-0.33155499428007,-0.16317476239968
0.43,-0.09718,-0.34722749586312,-0.17083148872461
0.44,-0.09944,-0.36055905371589,-0.17730950954936
0.45,-0.1017,-0.37345270371892,-0.18356116114593
0.46,-0.10396,-0.38984763723456,-0.19155638398897
0.47,-0.10622,-0.40901138481056,-0.20092740360545
0.48,-0.10848,-0.42654100931591,-0.20947231464449
0.49,-0.11074,-0.44408790712876,-0.21801586147411
0.5,-0.113,-0.4603963423845,-0.22593080224255
0.51,-0.11526,-0.47644109870056,-0.23370399887452
0.52,-0.11752,-0.49433013290649,-0.24239076733716
0.53,-0.11978,-0.51421680528121,-0.25206626744487
0.54,-0.12204,-0.53207526381151,-0.2607168478616
0.55,-0.1243,-0.55031765232027,-0.26955007319914
0.56,-0.12656,-0.56923388623991,-0.27870903501651
0.57,-0.12882,-0.58967415261346,-0.28862013401308
0.58,-0.13108,-0.60848602565134,-0.29770549344133
0.59,-0.13334,-0.62962679251042,-0.30794507774464
0.6,-0.1356,-0.65144516072962,-0.31851213322704
0.61,-0.13786,-0.67319441778926,-0.32903349251062
0.62,-0.14012,-0.69387391435866,-0.33900903735768
0.63,-0.14238,-0.71394759463321,-0.34866993339114
0.64,-0.14464,-0.73438343327356,-0.35850140910059
0.65,-0.1469,-0.75797959854439,-0.36990215491042
0.66,-0.14916,-0.78047556776638,-0.38073902393734
0.67,-0.15142,-0.80253309283547,-0.39134375465778
0.68,-0.15368,-0.82564043535114,-0.40246190473888
0.69,-0.15594,-0.85283050938211,-0.41560792965034
0.7,-0.1582,-0.87870849396515,-0.42808286360196
0.71,-0.16046,-0.90180738778026,-0.4391534527013
0.72,-0.16272,-0.92490439345819,-0.45021080130888
0.73,-0.16498,-0.94913774980983,-0.46182410882392
0.74,-0.16724,-0.97127432130638,-0.47237489840053
0.75,-0.1695,-0.99472238731255,-0.48356861600189
0.76,-0.17176,-1.0211595941605,-0.4962435012488
0.77,-0.17402,-1.0478400535206,-0.50902581390589
0.78,-0.17628,-1.0742144149506,-0.52164127583078
0.79,-0.17854,-1.1037917144881,-0.53584469698676
0.8,-0.1808,-1.1353370445306,-0.55101506155839
0.81,-0.18306,-1.1645082217908,-0.56498169153346
0.82,-0.18532,-1.1933433051652,-0.57876488685356
0.83,-0.18758,-1.2207278311316,-0.59180626317496
0.84,-0.18984,-1.2461230510061,-0.60383744039826
0.85,-0.1921,-1.2719834964279,-0.61608452279939
0.86,-0.19436,-1.3000698038018,-0.62942791694761
0.87,-0.19662,-1.3279609948877,-0.64265773157043
0.88,-0.19888,-1.3551320524862,-0.655512568602
0.89,-0.20114,-1.3833393069698,-0.66887054234451
0.895,-0.20227,-1.3980438539968,-0.6758432773733
0.905,-0.20453,-1.4347126791165,-0.69340729179562
0.915,-0.20679,-1.4692395827171,-0.70988275482698
0.925,-0.20905,-1.5032234930996,-0.72606969475492
0.935,-0.21131,-1.5348679997096,-0.74106731332908
0.945,-0.21357,-1.566274058851,-0.7559290770146
0.955,-0.21583,-1.5982849706374,-0.77107294483579
0.965,-0.21809,-1.6300491997333,-0.78607351426474
0.975,-0.22035,-1.6599167169927,-0.8001056792227
0.985,-0.22261,-1.6910354118192,-0.81474742983401
0.995,-0.22487,-1.7207669468123,-0.82867789191709
1,-0.226,-1.7351331086487,-0.83538686072966
