time,disp_y_top,react_y_top,stress_yy
0,0,0,0
0.01,-0.00226,-0.01881234853251,-0.0093905523570683
0.02,-0.00452,-0.026085070820515,-0.013012301514486
0.03,-0.00678,-0.033361315660049,-0.016631006340415
0.04,-0.00904,-0.04016817811284,-0.020010902607744
0.05,-0.0113,-0.045684744128757,-0.022743372573151
0.06,-0.01356,-0.051027880609745,-0.025385515174206
0.07,-0.01582,-0.054298170017236,-0.026992717577138
0.08,-0.01808,-0.056819096902725,-0.028225673645265
0.09,-0.02034,-0.059261426793479,-0.029417812204947
0.1,-0.0226,-0.061638354071394,-0.030575764021773
0.11,-0.02486,-0.06396035089641,-0.03170479102207
0.12,-0.02712,-0.066235786580068,-0.032809098879859
0.13,-0.02938,-0.068471446293522,-0.033892097467315
0.14,-0.03164,-0.070672900504977,-0.034956586368595
0.15,-0.0339,-0.072844773226518,-0.036004889587942
0.16,-0.03616,-0.074990940996256,-0.037038955482416
0.17,-0.03842,-0.077114666612984,-0.038060422178188
0.18,-0.04068,-0.079218771148349,-0.0390707101952
0.19,-0.04294,-0.081305651862494,-0.040071023790118
0.2,-0.0452,-0.083377375166274,-0.041062400586104
0.21,-0.04746,-0.085435748472723,-0.042045748847749
0.22,-0.04972,-0.087277132303561,-0.042920133802687
0.23,-0.05198,-0.096657785066256,-0.047567454480599
0.24,-0.05424,-0.11486749126723,-0.056625829721979
0.25,-0.0565,-0.13253564618078,-0.065406367525694
0.26,-0.05876,-0.14960069632372,-0.073877649088099
0.27,-0.06102,-0.16604721224979,-0.082031219005227
0.28,-0.06328,-0.18182699800711,-0.08984187429828
0.29,-0.06554,-0.19686880266136,-0.097272737196324
0.3,-0.0678,-0.21139776658236,-0.10443697407491
0.31,-0.07006,-0.2251209973024,-0.11118703148635
0.32,-0.07232,-0.23619431286199,-0.11660581695157
0.33,-0.07458,-0.24609675691333,-0.12143332993965
0.34,-0.07684,-0.25493233074959,-0.12572220221088
0.35,-0.0791,-0.26228709750693,-0.12926625747387
0.36,-0.08136,-0.26922025421507,-0.13259359926428
0.37,-0.08362,-0.27578197169792,-0.13572929257541
0.38,-0.08588,-0.28208594608206,-0.13873062111735
0.39,-0.08814,-0.28820008139606,-0.14163181364849
0.4,-0.0904,-0.29391116507479,-0.14432687607954
0.41,-0.09266,-0.2993775107981,-0.14689484942263
0.42,-0.09492,-0.30472597602426,-0.14939924989617
0.43,-0.09718,-0.30981030316571,-0.15176803301603
0.44,-0.09944,-0.31468052892549,-0.15402589766724
0.45,-0.1017,-0.31924981538251,-0.15613037738017
0.46,-0.10396,-0.33699799501762,-0.16480416712338
0.47,-0.10622,-0.35400139425824,-0.17310123127997
0.48,-0.10848,-0.37039124966906,-0.18108670468941
0.49,-0.11074,-0.38611400281229,-0.18873354305063
0.5,-0.113,-0.40110093997193,-0.19600720928851
0.51,-0.11526,-0.42163539038357,-0.20605160615764
0.52,-0.11752,-0.45093222159747,-0.22046849268658
0.53,-0.11978,-0.47907091872643,-0.23429387999856
0.54,-0.12204,-0.50572398551289,-0.24736477695895
0.55,-0.1243,-0.53133641644133,-0.2599012281924
0.56,-0.12656,-0.55597700959564,-0.27193692083209
0.57,-0.12882,-0.57971404547865,-0.28350586379652
0.58,-0.13108,-0.60247382202529,-0.29457195078901
0.59,-0.13334,-0.62307019232343,-0.30454441031624
0.6,-0.1356,-0.64143442404871,-0.31338939759039
0.61,-0.13786,-0.67897555531831,-0.33179595236058
0.62,-0.14012,-0.71472871521716,-0.34929496159138
0.63,-0.14238,-0.74976386105422,-0.36641945713041
0.64,-0.14464,-0.78409134894212,-0.38317444294165
0.65,-0.1469,-0.81724145620037,-0.39932795562915
0.66,-0.14916,-0.84936484209677,-0.41495143643896
0.67,-0.15142,-0.88048319483984,-0.43005513839564
0.68,-0.15368,-0.90994902989142,-0.44432011374372
0.69,-0.15594,-0.93785457884772,-0.45778996190633
0.7,-0.1582,-0.96467630243683,-0.47070046623512
0.71,-0.16046,-0.98893353361979,-0.48231379780613
0.72,-0.16272,-1.0114838322089,-0.493059151781
0.73,-0.16498,-1.0320637500424,-0.50280555290583
0.74,-0.16724,-1.0514851681711,-0.51195776639863
0.75,-0.1695,-1.0701716100157,-0.5207285938113
0.76,-0.17176,-1.0880022334495,-0.52905722643875
0.77,-0.17402,-1.104942260308,-0.53692671515236
0.78,-0.17628,-1.132402710744,-0.55004897323486
0.79,-0.17854,-1.1703292418064,-0.56838301845595
0.8,-0.1808,-1.2070566568296,-0.58609960838789
0.81,-0.18306,-1.2428227666201,-0.60331730810807
0.82,-0.18532,-1.2767784768436,-0.61961598398949
0.83,-0.18758,-1.308807339871,-0.63493786044158
0.84,-0.18984,-1.3389953863479,-0.64932152057166
0.85,-0.1921,-1.3677765077905,-0.66298292012253
0.86,-0.19436,-1.3953087516697,-0.6760017963664
0.87,-0.19662,-1.4219311451966,-0.68854731577195
0.88,-0.19888,-1.4475221065996,-0.70055931692709
0.89,-0.20114,-1.472232919291,-0.71211321699543
0.9,-0.2034,-1.4945211381085,-0.72244512970576
0.91,-0.20566,-1.521061503274,-0.7348880572116
0.92,-0.20792,-1.560781874933,-0.75389277103895
0.93,-0.21018,-1.5989893829101,-0.7721205508785
0.94,-0.21244,-1.6358021848719,-0.78962973130831
0.95,-0.2147,-1.6711255826933,-0.80637318332708
0.96,-0.21696,-1.7054437964386,-0.82259101737641
0.97,-0.21922,-1.7386884058927,-0.83824891837619
0.98,-0.22148,-1.7711255860607,-0.85347916533153
0.99,-0.22374,-1.8027947737792,-0.86830141506952
1,-0.226,-1.8336078922367,-0.88267191596145
