time,disp_y_top,react_y_top,stress_yy
0,0,0,0
0.01,-0.00226,-0.0091168687477421,-0.0045506138889993
0.02,-0.00452,-0.012097637059187,-0.0060352087183978
0.03,-0.00678,-0.014214991386639,-0.0070865367258016
0.04,-0.00904,-0.015449869542344,-0.0076967400750031
0.05,-0.0113,-0.016624329046188,-0.0082759989108269
0.06,-0.01356,-0.017754290763454,-0.0088322984826791
0.07,-0.01582,-0.018850824169627,-0.0093711895097964
0.08,-0.01808,-0.019921771968481,-0.009896604552788
0.09,-0.02034,-0.020972867034954,-0.010411418073618
0.1,-0.0226,-0.022008409944314,-0.010917786154014
0.11,-0.02486,-0.025586964293231,-0.012695529394534
0.12,-0.02712,-0.034180443641945,-0.016978896406635
0.13,-0.02938,-0.042248006001244,-0.020995898304562
0.14,-0.03164,-0.049777358555448,-0.024739533093704
0.15,-0.0339,-0.056771113551377,-0.028210599721988
0.16,-0.03616,-0.062814921641762,-0.031201969909964
0.17,-0.03842,-0.067568902604199,-0.033545887295869
0.18,-0.04068,-0.071199623412964,-0.035325790586175
0.19,-0.04294,-0.074458242800861,-0.036916824362032
0.2,-0.0452,-0.07753370718913,-0.038413689325635
0.21,-0.04746,-0.085335858977658,-0.042268430809397
0.22,-0.04972,-0.093477177478181,-0.046288818506266
0.23,-0.05198,-0.10100085556893,-0.049997091768248
0.24,-0.05424,-0.1080633907199,-0.053471111771173
0.25,-0.0565,-0.11420465481709,-0.05648165350653
0.26,-0.05876,-0.12675376612149,-0.062693476591982
0.27,-0.06102,-0.13847131915713,-0.068484277350216
0.28,-0.06328,-0.14902211397932,-0.0736861720098
0.29,-0.06554,-0.15864740553145,-0.078418996994912
0.3,-0.0678,-0.16710276490322,-0.082560612137467
0.31,-0.07006,-0.18211443959665,-0.089973423239669
0.32,-0.07232,-0.19803307239674,-0.097831567853902
0.33,-0.07458,-0.21310850081813,-0.10526096552188
0.34,-0.07684,-0.22744430950913,-0.11231309296515
0.35,-0.0791,-0.24095542013548,-0.11894586692256
0.36,-0.08136,-0.2533024798071,-0.12499075072083
0.37,-0.08362,-0.26454399612944,-0.13047605308457
0.38,-0.08588,-0.27454201360171,-0.13533322733704
0.39,-0.08814,-0.28335298980127,-0.13959113625876
0.4,-0.0904,-0.29686234872315,-0.1461931221917
0.41,-0.09266,-0.31106521121888,-0.15313393258085
0.42,-0.09492,-0.32418452045278,-0.15952379867193
0.43,-0.09718,-0.34488691632354,-0.16969775249291
0.44,-0.09944,-0.36510275023838,-0.17961781381229
0.45,-0.1017,-0.38377133143678,-0.18875445289948
0.46,-0.10396,-0.40073177449706,-0.19702828263179
0.47,-0.10622,-0.41641005478533,-0.20465241998379
0.48,-0.10848,-0.43103018637092,-0.21173788288993
0.49,-0.11074,-0.44401281968129,-0.21799616541334
0.5,-0.113,-0.45547249254806,-0.22348530799398
0.51,-0.11526,-0.4658010750324,-0.22839591716852
0.52,-0.11752,-0.47608073817818,-0.23328648257942
0.53,-0.11978,-0.48962300352651,-0.23978657709601
0.54,-0.12204,-0.51758859601654,-0.25350992389289
0.55,-0.1243,-0.54501979430272,-0.26693774686772
0.56,-0.12656,-0.57077639797464,-0.27951942664009
0.57,-0.12882,-0.59519962317926,-0.29142175916326
0.58,-0.13108,-0.61792193214097,-0.30245985918567
0.59,-0.13334,-0.63820255337572,-0.31226410073834
0.6,-0.1356,-0.65519639603718,-0.32041394003888
0.61,-0.13786,-0.67738481111732,-0.33114897879723
0.62,-0.14012,-0.6987481005787,-0.34145868960394
0.63,-0.14238,-0.7190288982235,-0.35121524359644
0.64,-0.14464,-0.73805591051384,-0.36033390302948
0.65,-0.1469,-0.76511431217213,-0.37345889601249
0.66,-0.14916,-0.79117041745575,-0.38608415343698
0.67,-0.15142,-0.81559586026681,-0.39785732739534
0.68,-0.15368,-0.83807485239529,-0.4086511604957
0.69,-0.15594,-0.86317786397883,-0.42074606365798
0.7,-0.1582,-0.88872243866792,-0.43304615854982
0.71,-0.16046,-0.91190184051885,-0.44415231891961
0.72,-0.16272,-0.93341599495442,-0.45441364966175
0.73,-0.16498,-0.9543774621987,-0.46438551444139
0.74,-0.16724,-0.98174532962362,-0.47754470224687
0.75,-0.1695,-1.0074641022019,-0.48986370523729
0.76,-0.17176,-1.035499495158,-0.50332826430296
0.77,-0.17402,-1.064860241969,-0.51743760458767
0.78,-0.17628,-1.0921816410181,-0.53051148056229
0.79,-0.17854,-1.1170303808952,-0.54233416028795
0.8,-0.1808,-1.1398449911085,-0.5531240709385
0.81,-0.18306,-1.1603430601015,-0.56274162021531
0.82,-0.18532,-1.1792026126204,-0.5715264534587
0.83,-0.18758,-1.2038079265443,-0.58317681768543
0.84,-0.18984,-1.2285822175751,-0.59489768271982
0.85,-0.1921,-1.254671760296,-0.60726529815039
0.86,-0.19436,-1.2872767056822,-0.62287837757443
0.87,-0.19662,-1.3235648134785,-0.64031454432481
0.88,-0.19888,-1.3578107454604,-0.65671195644532
0.89,-0.20114,-1.3934553160158,-0.67379356309967
0.9,-0.2034,-1.4281221019162,-0.69036733288577
0.91,-0.20566,-1.460902333176,-0.70597854944411
0.92,-0.20792,-1.4919365672447,-0.72069674599047
0.93,-0.21018,-1.5227455398714,-0.73528447865002
0.94,-0.21244,-1.5604981082187,-0.75332206277363
0.95,-0.2147,-1.5977772639641,-0.77110078177109
0.96,-0.21696,-1.6331031297958,-0.78788133714449
0.97,-0.21922,-1.6680390440272,-0.80444746548359
0.98,-0.22148,-1.7038103133907,-0.82140945287567
0.99,-0.22374,-1.7369035702805,-0.83701154309403
1,-0.226,-1.7673120031091,-0.85125100142263
